*SPEF "ieee 1481-1999"
*DESIGN "spm"
*DATE "04:23:40 Thursday March 27, 2025"
*VENDOR "The OpenROAD Project"
*PROGRAM "OpenROAD"
*VERSION "edf00dff99f6c40d67a30c0e22a8191c5d2ed9d6"
*DESIGN_FLOW "NAME_SCOPE LOCAL" "PIN_CAP NONE"
*DIVIDER /
*DELIMITER :
*BUS_DELIMITER []
*T_UNIT 1 NS
*C_UNIT 1 PF
*R_UNIT 1 OHM
*L_UNIT 1 HENRY

*NAME_MAP
*1 a[0]
*2 a[10]
*3 a[11]
*4 a[12]
*5 a[13]
*6 a[14]
*7 a[15]
*8 a[16]
*9 a[17]
*10 a[18]
*11 a[19]
*12 a[1]
*13 a[20]
*14 a[21]
*15 a[22]
*16 a[23]
*17 a[24]
*18 a[25]
*19 a[26]
*20 a[27]
*21 a[28]
*22 a[29]
*23 a[2]
*24 a[30]
*25 a[31]
*26 a[3]
*27 a[4]
*28 a[5]
*29 a[6]
*30 a[7]
*31 a[8]
*32 a[9]
*33 clk
*34 rst
*37 x
*38 y
*39 clknet_0_clk
*40 clknet_3_0__leaf_clk
*41 clknet_3_1__leaf_clk
*42 clknet_3_2__leaf_clk
*43 clknet_3_3__leaf_clk
*44 clknet_3_4__leaf_clk
*45 clknet_3_5__leaf_clk
*46 clknet_3_6__leaf_clk
*47 clknet_3_7__leaf_clk
*48 dsa\[0\]\._0_
*49 dsa\[0\]\._1_
*50 dsa\[0\]\._2_
*51 dsa\[0\]\.last_carry
*52 dsa\[0\]\.last_carry_next
*53 dsa\[0\]\.y_out
*54 dsa\[0\]\.y_out_next
*55 dsa\[10\]\._0_
*56 dsa\[10\]\._1_
*57 dsa\[10\]\._2_
*58 dsa\[10\]\.last_carry
*59 dsa\[10\]\.last_carry_next
*60 dsa\[10\]\.y_in
*61 dsa\[10\]\.y_out
*62 dsa\[10\]\.y_out_next
*63 dsa\[11\]\._0_
*64 dsa\[11\]\._1_
*65 dsa\[11\]\._2_
*66 dsa\[11\]\.last_carry
*67 dsa\[11\]\.last_carry_next
*68 dsa\[11\]\.y_out
*69 dsa\[11\]\.y_out_next
*70 dsa\[12\]\._0_
*71 dsa\[12\]\._1_
*72 dsa\[12\]\._2_
*73 dsa\[12\]\.last_carry
*74 dsa\[12\]\.last_carry_next
*75 dsa\[12\]\.y_out
*76 dsa\[12\]\.y_out_next
*77 dsa\[13\]\._0_
*78 dsa\[13\]\._1_
*79 dsa\[13\]\._2_
*80 dsa\[13\]\.last_carry
*81 dsa\[13\]\.last_carry_next
*82 dsa\[13\]\.y_out
*83 dsa\[13\]\.y_out_next
*84 dsa\[14\]\._0_
*85 dsa\[14\]\._1_
*86 dsa\[14\]\._2_
*87 dsa\[14\]\.last_carry
*88 dsa\[14\]\.last_carry_next
*89 dsa\[14\]\.y_out
*90 dsa\[14\]\.y_out_next
*91 dsa\[15\]\._0_
*92 dsa\[15\]\._1_
*93 dsa\[15\]\._2_
*94 dsa\[15\]\.last_carry
*95 dsa\[15\]\.last_carry_next
*96 dsa\[15\]\.y_out
*97 dsa\[15\]\.y_out_next
*98 dsa\[16\]\._0_
*99 dsa\[16\]\._1_
*100 dsa\[16\]\._2_
*101 dsa\[16\]\.last_carry
*102 dsa\[16\]\.last_carry_next
*103 dsa\[16\]\.y_out
*104 dsa\[16\]\.y_out_next
*105 dsa\[17\]\._0_
*106 dsa\[17\]\._1_
*107 dsa\[17\]\._2_
*108 dsa\[17\]\.last_carry
*109 dsa\[17\]\.last_carry_next
*110 dsa\[17\]\.y_out
*111 dsa\[17\]\.y_out_next
*112 dsa\[18\]\._0_
*113 dsa\[18\]\._1_
*114 dsa\[18\]\._2_
*115 dsa\[18\]\.last_carry
*116 dsa\[18\]\.last_carry_next
*117 dsa\[18\]\.y_out
*118 dsa\[18\]\.y_out_next
*119 dsa\[19\]\._0_
*120 dsa\[19\]\._1_
*121 dsa\[19\]\._2_
*122 dsa\[19\]\.last_carry
*123 dsa\[19\]\.last_carry_next
*124 dsa\[19\]\.y_out
*125 dsa\[19\]\.y_out_next
*126 dsa\[1\]\._0_
*127 dsa\[1\]\._1_
*128 dsa\[1\]\._2_
*129 dsa\[1\]\.last_carry
*130 dsa\[1\]\.last_carry_next
*131 dsa\[1\]\.y_out
*132 dsa\[1\]\.y_out_next
*133 dsa\[20\]\._0_
*134 dsa\[20\]\._1_
*135 dsa\[20\]\._2_
*136 dsa\[20\]\.last_carry
*137 dsa\[20\]\.last_carry_next
*138 dsa\[20\]\.y_out
*139 dsa\[20\]\.y_out_next
*140 dsa\[21\]\._0_
*141 dsa\[21\]\._1_
*142 dsa\[21\]\._2_
*143 dsa\[21\]\.last_carry
*144 dsa\[21\]\.last_carry_next
*145 dsa\[21\]\.y_out
*146 dsa\[21\]\.y_out_next
*147 dsa\[22\]\._0_
*148 dsa\[22\]\._1_
*149 dsa\[22\]\._2_
*150 dsa\[22\]\.last_carry
*151 dsa\[22\]\.last_carry_next
*152 dsa\[22\]\.y_out
*153 dsa\[22\]\.y_out_next
*154 dsa\[23\]\._0_
*155 dsa\[23\]\._1_
*156 dsa\[23\]\._2_
*157 dsa\[23\]\.last_carry
*158 dsa\[23\]\.last_carry_next
*159 dsa\[23\]\.y_out
*160 dsa\[23\]\.y_out_next
*161 dsa\[24\]\._0_
*162 dsa\[24\]\._1_
*163 dsa\[24\]\._2_
*164 dsa\[24\]\.last_carry
*165 dsa\[24\]\.last_carry_next
*166 dsa\[24\]\.y_out
*167 dsa\[24\]\.y_out_next
*168 dsa\[25\]\._0_
*169 dsa\[25\]\._1_
*170 dsa\[25\]\._2_
*171 dsa\[25\]\.last_carry
*172 dsa\[25\]\.last_carry_next
*173 dsa\[25\]\.y_out
*174 dsa\[25\]\.y_out_next
*175 dsa\[26\]\._0_
*176 dsa\[26\]\._1_
*177 dsa\[26\]\._2_
*178 dsa\[26\]\.last_carry
*179 dsa\[26\]\.last_carry_next
*180 dsa\[26\]\.y_out
*181 dsa\[26\]\.y_out_next
*182 dsa\[27\]\._0_
*183 dsa\[27\]\._1_
*184 dsa\[27\]\._2_
*185 dsa\[27\]\.last_carry
*186 dsa\[27\]\.last_carry_next
*187 dsa\[27\]\.y_out
*188 dsa\[27\]\.y_out_next
*189 dsa\[28\]\._0_
*190 dsa\[28\]\._1_
*191 dsa\[28\]\._2_
*192 dsa\[28\]\.last_carry
*193 dsa\[28\]\.last_carry_next
*194 dsa\[28\]\.y_out
*195 dsa\[28\]\.y_out_next
*196 dsa\[29\]\._0_
*197 dsa\[29\]\._1_
*198 dsa\[29\]\._2_
*199 dsa\[29\]\.last_carry
*200 dsa\[29\]\.last_carry_next
*201 dsa\[29\]\.y_out
*202 dsa\[29\]\.y_out_next
*203 dsa\[2\]\._0_
*204 dsa\[2\]\._1_
*205 dsa\[2\]\._2_
*206 dsa\[2\]\.last_carry
*207 dsa\[2\]\.last_carry_next
*208 dsa\[2\]\.y_out
*209 dsa\[2\]\.y_out_next
*210 dsa\[30\]\._0_
*211 dsa\[30\]\._1_
*212 dsa\[30\]\._2_
*213 dsa\[30\]\.last_carry
*214 dsa\[30\]\.last_carry_next
*215 dsa\[30\]\.y_out
*216 dsa\[30\]\.y_out_next
*217 dsa\[31\]\._0_
*218 dsa\[31\]\._1_
*219 dsa\[31\]\._2_
*220 dsa\[31\]\.last_carry
*221 dsa\[31\]\.last_carry_next
*222 dsa\[31\]\.y_out_next
*223 dsa\[3\]\._0_
*224 dsa\[3\]\._1_
*225 dsa\[3\]\._2_
*226 dsa\[3\]\.last_carry
*227 dsa\[3\]\.last_carry_next
*228 dsa\[3\]\.y_out
*229 dsa\[3\]\.y_out_next
*230 dsa\[4\]\._0_
*231 dsa\[4\]\._1_
*232 dsa\[4\]\._2_
*233 dsa\[4\]\.last_carry
*234 dsa\[4\]\.last_carry_next
*235 dsa\[4\]\.y_out
*236 dsa\[4\]\.y_out_next
*237 dsa\[5\]\._0_
*238 dsa\[5\]\._1_
*239 dsa\[5\]\._2_
*240 dsa\[5\]\.last_carry
*241 dsa\[5\]\.last_carry_next
*242 dsa\[5\]\.y_out
*243 dsa\[5\]\.y_out_next
*244 dsa\[6\]\._0_
*245 dsa\[6\]\._1_
*246 dsa\[6\]\._2_
*247 dsa\[6\]\.last_carry
*248 dsa\[6\]\.last_carry_next
*249 dsa\[6\]\.y_out
*250 dsa\[6\]\.y_out_next
*251 dsa\[7\]\._0_
*252 dsa\[7\]\._1_
*253 dsa\[7\]\._2_
*254 dsa\[7\]\.last_carry
*255 dsa\[7\]\.last_carry_next
*256 dsa\[7\]\.y_out
*257 dsa\[7\]\.y_out_next
*258 dsa\[8\]\._0_
*259 dsa\[8\]\._1_
*260 dsa\[8\]\._2_
*261 dsa\[8\]\.last_carry
*262 dsa\[8\]\.last_carry_next
*263 dsa\[8\]\.y_out
*264 dsa\[8\]\.y_out_next
*265 dsa\[9\]\._0_
*266 dsa\[9\]\._1_
*267 dsa\[9\]\._2_
*268 dsa\[9\]\.last_carry
*269 dsa\[9\]\.last_carry_next
*270 dsa\[9\]\.y_out_next
*271 net1
*272 net10
*273 net11
*274 net12
*275 net13
*276 net14
*277 net15
*278 net16
*279 net17
*280 net18
*281 net19
*282 net2
*283 net20
*284 net21
*285 net22
*286 net23
*287 net24
*288 net25
*289 net26
*290 net27
*291 net28
*292 net29
*293 net3
*294 net30
*295 net31
*296 net32
*297 net33
*298 net34
*299 net35
*300 net36
*301 net37
*302 net4
*303 net5
*304 net6
*305 net7
*306 net8
*307 net9
*308 FILLER_0_109
*309 FILLER_0_113
*310 FILLER_0_125
*311 FILLER_0_137
*312 FILLER_0_141
*313 FILLER_0_145
*314 FILLER_0_15
*315 FILLER_0_162
*316 FILLER_0_169
*317 FILLER_0_181
*318 FILLER_0_27
*319 FILLER_0_29
*320 FILLER_0_3
*321 FILLER_0_41
*322 FILLER_0_53
*323 FILLER_0_57
*324 FILLER_0_69
*325 FILLER_0_81
*326 FILLER_0_85
*327 FILLER_0_97
*328 FILLER_10_137
*329 FILLER_10_141
*330 FILLER_10_149
*331 FILLER_10_159
*332 FILLER_10_26
*333 FILLER_10_36
*334 FILLER_10_44
*335 FILLER_10_57
*336 FILLER_10_69
*337 FILLER_10_81
*338 FILLER_10_89
*339 FILLER_11_105
*340 FILLER_11_11
*341 FILLER_11_111
*342 FILLER_11_113
*343 FILLER_11_131
*344 FILLER_11_167
*345 FILLER_11_176
*346 FILLER_11_182
*347 FILLER_11_3
*348 FILLER_11_31
*349 FILLER_11_39
*350 FILLER_11_46
*351 FILLER_11_54
*352 FILLER_11_57
*353 FILLER_11_69
*354 FILLER_11_81
*355 FILLER_11_93
*356 FILLER_12_127
*357 FILLER_12_139
*358 FILLER_12_141
*359 FILLER_12_15
*360 FILLER_12_160
*361 FILLER_12_27
*362 FILLER_12_29
*363 FILLER_12_3
*364 FILLER_12_33
*365 FILLER_12_74
*366 FILLER_12_82
*367 FILLER_12_91
*368 FILLER_12_99
*369 FILLER_13_100
*370 FILLER_13_113
*371 FILLER_13_15
*372 FILLER_13_167
*373 FILLER_13_169
*374 FILLER_13_181
*375 FILLER_13_26
*376 FILLER_13_3
*377 FILLER_13_54
*378 FILLER_13_57
*379 FILLER_14_104
*380 FILLER_14_116
*381 FILLER_14_128
*382 FILLER_14_141
*383 FILLER_14_153
*384 FILLER_14_158
*385 FILLER_14_170
*386 FILLER_14_182
*387 FILLER_14_27
*388 FILLER_14_32
*389 FILLER_14_44
*390 FILLER_14_56
*391 FILLER_14_68
*392 FILLER_14_80
*393 FILLER_14_92
*394 FILLER_14_96
*395 FILLER_15_101
*396 FILLER_15_109
*397 FILLER_15_113
*398 FILLER_15_125
*399 FILLER_15_133
*400 FILLER_15_145
*401 FILLER_15_15
*402 FILLER_15_157
*403 FILLER_15_165
*404 FILLER_15_169
*405 FILLER_15_181
*406 FILLER_15_23
*407 FILLER_15_3
*408 FILLER_15_31
*409 FILLER_15_52
*410 FILLER_15_57
*411 FILLER_15_69
*412 FILLER_15_81
*413 FILLER_15_93
*414 FILLER_16_108
*415 FILLER_16_11
*416 FILLER_16_148
*417 FILLER_16_160
*418 FILLER_16_180
*419 FILLER_16_25
*420 FILLER_16_29
*421 FILLER_16_3
*422 FILLER_16_41
*423 FILLER_16_71
*424 FILLER_16_78
*425 FILLER_16_85
*426 FILLER_16_93
*427 FILLER_17_113
*428 FILLER_17_125
*429 FILLER_17_133
*430 FILLER_17_145
*431 FILLER_17_167
*432 FILLER_17_33
*433 FILLER_17_45
*434 FILLER_17_53
*435 FILLER_17_57
*436 FILLER_18_120
*437 FILLER_18_132
*438 FILLER_18_161
*439 FILLER_18_21
*440 FILLER_18_27
*441 FILLER_18_29
*442 FILLER_18_3
*443 FILLER_18_41
*444 FILLER_18_53
*445 FILLER_18_57
*446 FILLER_18_62
*447 FILLER_18_74
*448 FILLER_18_82
*449 FILLER_18_85
*450 FILLER_18_97
*451 FILLER_19_103
*452 FILLER_19_111
*453 FILLER_19_113
*454 FILLER_19_127
*455 FILLER_19_139
*456 FILLER_19_15
*457 FILLER_19_151
*458 FILLER_19_163
*459 FILLER_19_167
*460 FILLER_19_169
*461 FILLER_19_181
*462 FILLER_19_23
*463 FILLER_19_3
*464 FILLER_19_45
*465 FILLER_19_53
*466 FILLER_19_65
*467 FILLER_19_91
*468 FILLER_1_105
*469 FILLER_1_111
*470 FILLER_1_113
*471 FILLER_1_125
*472 FILLER_1_137
*473 FILLER_1_149
*474 FILLER_1_15
*475 FILLER_1_161
*476 FILLER_1_167
*477 FILLER_1_169
*478 FILLER_1_181
*479 FILLER_1_27
*480 FILLER_1_3
*481 FILLER_1_39
*482 FILLER_1_51
*483 FILLER_1_55
*484 FILLER_1_57
*485 FILLER_1_69
*486 FILLER_1_81
*487 FILLER_1_93
*488 FILLER_20_106
*489 FILLER_20_114
*490 FILLER_20_132
*491 FILLER_20_141
*492 FILLER_20_162
*493 FILLER_20_166
*494 FILLER_20_178
*495 FILLER_20_182
*496 FILLER_20_26
*497 FILLER_20_29
*498 FILLER_20_3
*499 FILLER_20_37
*500 FILLER_20_59
*501 FILLER_20_72
*502 FILLER_20_85
*503 FILLER_21_105
*504 FILLER_21_111
*505 FILLER_21_113
*506 FILLER_21_119
*507 FILLER_21_128
*508 FILLER_21_152
*509 FILLER_21_166
*510 FILLER_21_176
*511 FILLER_21_182
*512 FILLER_21_30
*513 FILLER_21_42
*514 FILLER_21_49
*515 FILLER_21_55
*516 FILLER_21_66
*517 FILLER_21_72
*518 FILLER_21_93
*519 FILLER_22_100
*520 FILLER_22_108
*521 FILLER_22_135
*522 FILLER_22_139
*523 FILLER_22_141
*524 FILLER_22_145
*525 FILLER_22_15
*526 FILLER_22_176
*527 FILLER_22_182
*528 FILLER_22_23
*529 FILLER_22_27
*530 FILLER_22_29
*531 FILLER_22_3
*532 FILLER_22_37
*533 FILLER_22_59
*534 FILLER_22_63
*535 FILLER_22_85
*536 FILLER_23_110
*537 FILLER_23_136
*538 FILLER_23_144
*539 FILLER_23_15
*540 FILLER_23_152
*541 FILLER_23_164
*542 FILLER_23_169
*543 FILLER_23_181
*544 FILLER_23_23
*545 FILLER_23_3
*546 FILLER_24_105
*547 FILLER_24_117
*548 FILLER_24_138
*549 FILLER_24_161
*550 FILLER_24_23
*551 FILLER_24_27
*552 FILLER_24_29
*553 FILLER_24_41
*554 FILLER_24_48
*555 FILLER_24_54
*556 FILLER_24_75
*557 FILLER_24_83
*558 FILLER_24_85
*559 FILLER_24_93
*560 FILLER_25_105
*561 FILLER_25_111
*562 FILLER_25_113
*563 FILLER_25_125
*564 FILLER_25_137
*565 FILLER_25_14
*566 FILLER_25_145
*567 FILLER_25_176
*568 FILLER_25_182
*569 FILLER_25_3
*570 FILLER_25_36
*571 FILLER_25_48
*572 FILLER_25_57
*573 FILLER_25_69
*574 FILLER_25_81
*575 FILLER_25_93
*576 FILLER_26_109
*577 FILLER_26_117
*578 FILLER_26_121
*579 FILLER_26_133
*580 FILLER_26_139
*581 FILLER_26_141
*582 FILLER_26_150
*583 FILLER_26_162
*584 FILLER_26_170
*585 FILLER_26_174
*586 FILLER_26_182
*587 FILLER_26_19
*588 FILLER_26_27
*589 FILLER_26_29
*590 FILLER_26_35
*591 FILLER_26_43
*592 FILLER_26_55
*593 FILLER_26_85
*594 FILLER_27_104
*595 FILLER_27_140
*596 FILLER_27_149
*597 FILLER_27_15
*598 FILLER_27_161
*599 FILLER_27_167
*600 FILLER_27_181
*601 FILLER_27_27
*602 FILLER_27_3
*603 FILLER_27_35
*604 FILLER_27_45
*605 FILLER_27_53
*606 FILLER_27_68
*607 FILLER_27_80
*608 FILLER_27_84
*609 FILLER_27_92
*610 FILLER_28_102
*611 FILLER_28_123
*612 FILLER_28_135
*613 FILLER_28_139
*614 FILLER_28_152
*615 FILLER_28_16
*616 FILLER_28_180
*617 FILLER_28_24
*618 FILLER_28_29
*619 FILLER_28_3
*620 FILLER_28_46
*621 FILLER_28_67
*622 FILLER_28_7
*623 FILLER_28_79
*624 FILLER_28_83
*625 FILLER_28_96
*626 FILLER_29_105
*627 FILLER_29_111
*628 FILLER_29_131
*629 FILLER_29_163
*630 FILLER_29_167
*631 FILLER_29_169
*632 FILLER_29_178
*633 FILLER_29_43
*634 FILLER_29_55
*635 FILLER_29_57
*636 FILLER_29_70
*637 FILLER_29_74
*638 FILLER_2_109
*639 FILLER_2_121
*640 FILLER_2_133
*641 FILLER_2_139
*642 FILLER_2_141
*643 FILLER_2_15
*644 FILLER_2_153
*645 FILLER_2_165
*646 FILLER_2_177
*647 FILLER_2_27
*648 FILLER_2_29
*649 FILLER_2_3
*650 FILLER_2_41
*651 FILLER_2_53
*652 FILLER_2_65
*653 FILLER_2_77
*654 FILLER_2_83
*655 FILLER_2_85
*656 FILLER_2_97
*657 FILLER_30_10
*658 FILLER_30_100
*659 FILLER_30_106
*660 FILLER_30_113
*661 FILLER_30_118
*662 FILLER_30_124
*663 FILLER_30_130
*664 FILLER_30_136
*665 FILLER_30_144
*666 FILLER_30_154
*667 FILLER_30_160
*668 FILLER_30_166
*669 FILLER_30_172
*670 FILLER_30_178
*671 FILLER_30_24
*672 FILLER_30_29
*673 FILLER_30_34
*674 FILLER_30_40
*675 FILLER_30_46
*676 FILLER_30_52
*677 FILLER_30_6
*678 FILLER_30_60
*679 FILLER_30_64
*680 FILLER_30_70
*681 FILLER_30_76
*682 FILLER_30_82
*683 FILLER_30_88
*684 FILLER_30_94
*685 FILLER_3_105
*686 FILLER_3_111
*687 FILLER_3_113
*688 FILLER_3_125
*689 FILLER_3_137
*690 FILLER_3_149
*691 FILLER_3_15
*692 FILLER_3_161
*693 FILLER_3_167
*694 FILLER_3_169
*695 FILLER_3_181
*696 FILLER_3_3
*697 FILLER_3_39
*698 FILLER_3_51
*699 FILLER_3_55
*700 FILLER_3_57
*701 FILLER_3_69
*702 FILLER_3_81
*703 FILLER_3_93
*704 FILLER_4_105
*705 FILLER_4_111
*706 FILLER_4_132
*707 FILLER_4_141
*708 FILLER_4_15
*709 FILLER_4_159
*710 FILLER_4_27
*711 FILLER_4_29
*712 FILLER_4_3
*713 FILLER_4_41
*714 FILLER_4_53
*715 FILLER_4_57
*716 FILLER_4_67
*717 FILLER_4_79
*718 FILLER_4_93
*719 FILLER_5_113
*720 FILLER_5_119
*721 FILLER_5_128
*722 FILLER_5_166
*723 FILLER_5_169
*724 FILLER_5_181
*725 FILLER_5_22
*726 FILLER_5_3
*727 FILLER_5_34
*728 FILLER_5_65
*729 FILLER_5_91
*730 FILLER_6_10
*731 FILLER_6_105
*732 FILLER_6_117
*733 FILLER_6_131
*734 FILLER_6_139
*735 FILLER_6_141
*736 FILLER_6_149
*737 FILLER_6_161
*738 FILLER_6_22
*739 FILLER_6_29
*740 FILLER_6_51
*741 FILLER_6_6
*742 FILLER_6_64
*743 FILLER_6_76
*744 FILLER_6_85
*745 FILLER_6_93
*746 FILLER_7_113
*747 FILLER_7_119
*748 FILLER_7_128
*749 FILLER_7_140
*750 FILLER_7_152
*751 FILLER_7_164
*752 FILLER_7_169
*753 FILLER_7_181
*754 FILLER_7_49
*755 FILLER_7_55
*756 FILLER_7_57
*757 FILLER_7_69
*758 FILLER_7_81
*759 FILLER_7_89
*760 FILLER_8_103
*761 FILLER_8_135
*762 FILLER_8_139
*763 FILLER_8_141
*764 FILLER_8_149
*765 FILLER_8_15
*766 FILLER_8_164
*767 FILLER_8_176
*768 FILLER_8_182
*769 FILLER_8_20
*770 FILLER_8_29
*771 FILLER_8_3
*772 FILLER_8_37
*773 FILLER_8_78
*774 FILLER_8_85
*775 FILLER_9_109
*776 FILLER_9_113
*777 FILLER_9_15
*778 FILLER_9_165
*779 FILLER_9_169
*780 FILLER_9_181
*781 FILLER_9_27
*782 FILLER_9_3
*783 FILLER_9_39
*784 FILLER_9_51
*785 FILLER_9_55
*786 FILLER_9_57
*787 PHY_EDGE_ROW_0_Left_31
*788 PHY_EDGE_ROW_0_Right_0
*789 PHY_EDGE_ROW_10_Left_41
*790 PHY_EDGE_ROW_10_Right_10
*791 PHY_EDGE_ROW_11_Left_42
*792 PHY_EDGE_ROW_11_Right_11
*793 PHY_EDGE_ROW_12_Left_43
*794 PHY_EDGE_ROW_12_Right_12
*795 PHY_EDGE_ROW_13_Left_44
*796 PHY_EDGE_ROW_13_Right_13
*797 PHY_EDGE_ROW_14_Left_45
*798 PHY_EDGE_ROW_14_Right_14
*799 PHY_EDGE_ROW_15_Left_46
*800 PHY_EDGE_ROW_15_Right_15
*801 PHY_EDGE_ROW_16_Left_47
*802 PHY_EDGE_ROW_16_Right_16
*803 PHY_EDGE_ROW_17_Left_48
*804 PHY_EDGE_ROW_17_Right_17
*805 PHY_EDGE_ROW_18_Left_49
*806 PHY_EDGE_ROW_18_Right_18
*807 PHY_EDGE_ROW_19_Left_50
*808 PHY_EDGE_ROW_19_Right_19
*809 PHY_EDGE_ROW_1_Left_32
*810 PHY_EDGE_ROW_1_Right_1
*811 PHY_EDGE_ROW_20_Left_51
*812 PHY_EDGE_ROW_20_Right_20
*813 PHY_EDGE_ROW_21_Left_52
*814 PHY_EDGE_ROW_21_Right_21
*815 PHY_EDGE_ROW_22_Left_53
*816 PHY_EDGE_ROW_22_Right_22
*817 PHY_EDGE_ROW_23_Left_54
*818 PHY_EDGE_ROW_23_Right_23
*819 PHY_EDGE_ROW_24_Left_55
*820 PHY_EDGE_ROW_24_Right_24
*821 PHY_EDGE_ROW_25_Left_56
*822 PHY_EDGE_ROW_25_Right_25
*823 PHY_EDGE_ROW_26_Left_57
*824 PHY_EDGE_ROW_26_Right_26
*825 PHY_EDGE_ROW_27_Left_58
*826 PHY_EDGE_ROW_27_Right_27
*827 PHY_EDGE_ROW_28_Left_59
*828 PHY_EDGE_ROW_28_Right_28
*829 PHY_EDGE_ROW_29_Left_60
*830 PHY_EDGE_ROW_29_Right_29
*831 PHY_EDGE_ROW_2_Left_33
*832 PHY_EDGE_ROW_2_Right_2
*833 PHY_EDGE_ROW_30_Left_61
*834 PHY_EDGE_ROW_30_Right_30
*835 PHY_EDGE_ROW_3_Left_34
*836 PHY_EDGE_ROW_3_Right_3
*837 PHY_EDGE_ROW_4_Left_35
*838 PHY_EDGE_ROW_4_Right_4
*839 PHY_EDGE_ROW_5_Left_36
*840 PHY_EDGE_ROW_5_Right_5
*841 PHY_EDGE_ROW_6_Left_37
*842 PHY_EDGE_ROW_6_Right_6
*843 PHY_EDGE_ROW_7_Left_38
*844 PHY_EDGE_ROW_7_Right_7
*845 PHY_EDGE_ROW_8_Left_39
*846 PHY_EDGE_ROW_8_Right_8
*847 PHY_EDGE_ROW_9_Left_40
*848 PHY_EDGE_ROW_9_Right_9
*849 TAP_TAPCELL_ROW_0_62
*850 TAP_TAPCELL_ROW_0_63
*851 TAP_TAPCELL_ROW_0_64
*852 TAP_TAPCELL_ROW_0_65
*853 TAP_TAPCELL_ROW_0_66
*854 TAP_TAPCELL_ROW_0_67
*855 TAP_TAPCELL_ROW_10_95
*856 TAP_TAPCELL_ROW_10_96
*857 TAP_TAPCELL_ROW_10_97
*858 TAP_TAPCELL_ROW_11_100
*859 TAP_TAPCELL_ROW_11_98
*860 TAP_TAPCELL_ROW_11_99
*861 TAP_TAPCELL_ROW_12_101
*862 TAP_TAPCELL_ROW_12_102
*863 TAP_TAPCELL_ROW_12_103
*864 TAP_TAPCELL_ROW_13_104
*865 TAP_TAPCELL_ROW_13_105
*866 TAP_TAPCELL_ROW_13_106
*867 TAP_TAPCELL_ROW_14_107
*868 TAP_TAPCELL_ROW_14_108
*869 TAP_TAPCELL_ROW_14_109
*870 TAP_TAPCELL_ROW_15_110
*871 TAP_TAPCELL_ROW_15_111
*872 TAP_TAPCELL_ROW_15_112
*873 TAP_TAPCELL_ROW_16_113
*874 TAP_TAPCELL_ROW_16_114
*875 TAP_TAPCELL_ROW_16_115
*876 TAP_TAPCELL_ROW_17_116
*877 TAP_TAPCELL_ROW_17_117
*878 TAP_TAPCELL_ROW_17_118
*879 TAP_TAPCELL_ROW_18_119
*880 TAP_TAPCELL_ROW_18_120
*881 TAP_TAPCELL_ROW_18_121
*882 TAP_TAPCELL_ROW_19_122
*883 TAP_TAPCELL_ROW_19_123
*884 TAP_TAPCELL_ROW_19_124
*885 TAP_TAPCELL_ROW_1_68
*886 TAP_TAPCELL_ROW_1_69
*887 TAP_TAPCELL_ROW_1_70
*888 TAP_TAPCELL_ROW_20_125
*889 TAP_TAPCELL_ROW_20_126
*890 TAP_TAPCELL_ROW_20_127
*891 TAP_TAPCELL_ROW_21_128
*892 TAP_TAPCELL_ROW_21_129
*893 TAP_TAPCELL_ROW_21_130
*894 TAP_TAPCELL_ROW_22_131
*895 TAP_TAPCELL_ROW_22_132
*896 TAP_TAPCELL_ROW_22_133
*897 TAP_TAPCELL_ROW_23_134
*898 TAP_TAPCELL_ROW_23_135
*899 TAP_TAPCELL_ROW_23_136
*900 TAP_TAPCELL_ROW_24_137
*901 TAP_TAPCELL_ROW_24_138
*902 TAP_TAPCELL_ROW_24_139
*903 TAP_TAPCELL_ROW_25_140
*904 TAP_TAPCELL_ROW_25_141
*905 TAP_TAPCELL_ROW_25_142
*906 TAP_TAPCELL_ROW_26_143
*907 TAP_TAPCELL_ROW_26_144
*908 TAP_TAPCELL_ROW_26_145
*909 TAP_TAPCELL_ROW_27_146
*910 TAP_TAPCELL_ROW_27_147
*911 TAP_TAPCELL_ROW_27_148
*912 TAP_TAPCELL_ROW_28_149
*913 TAP_TAPCELL_ROW_28_150
*914 TAP_TAPCELL_ROW_28_151
*915 TAP_TAPCELL_ROW_29_152
*916 TAP_TAPCELL_ROW_29_153
*917 TAP_TAPCELL_ROW_29_154
*918 TAP_TAPCELL_ROW_2_71
*919 TAP_TAPCELL_ROW_2_72
*920 TAP_TAPCELL_ROW_2_73
*921 TAP_TAPCELL_ROW_30_155
*922 TAP_TAPCELL_ROW_30_156
*923 TAP_TAPCELL_ROW_30_157
*924 TAP_TAPCELL_ROW_30_158
*925 TAP_TAPCELL_ROW_30_159
*926 TAP_TAPCELL_ROW_30_160
*927 TAP_TAPCELL_ROW_3_74
*928 TAP_TAPCELL_ROW_3_75
*929 TAP_TAPCELL_ROW_3_76
*930 TAP_TAPCELL_ROW_4_77
*931 TAP_TAPCELL_ROW_4_78
*932 TAP_TAPCELL_ROW_4_79
*933 TAP_TAPCELL_ROW_5_80
*934 TAP_TAPCELL_ROW_5_81
*935 TAP_TAPCELL_ROW_5_82
*936 TAP_TAPCELL_ROW_6_83
*937 TAP_TAPCELL_ROW_6_84
*938 TAP_TAPCELL_ROW_6_85
*939 TAP_TAPCELL_ROW_7_86
*940 TAP_TAPCELL_ROW_7_87
*941 TAP_TAPCELL_ROW_7_88
*942 TAP_TAPCELL_ROW_8_89
*943 TAP_TAPCELL_ROW_8_90
*944 TAP_TAPCELL_ROW_8_91
*945 TAP_TAPCELL_ROW_9_92
*946 TAP_TAPCELL_ROW_9_93
*947 TAP_TAPCELL_ROW_9_94
*948 clkbuf_0_clk
*949 clkbuf_3_0__f_clk
*950 clkbuf_3_1__f_clk
*951 clkbuf_3_2__f_clk
*952 clkbuf_3_3__f_clk
*953 clkbuf_3_4__f_clk
*954 clkbuf_3_5__f_clk
*955 clkbuf_3_6__f_clk
*956 clkbuf_3_7__f_clk
*957 clkload0
*958 clkload1
*959 clkload2
*960 clkload3
*961 clkload4
*962 clkload5
*963 clkload6
*964 dsa\[0\]\._3_
*965 dsa\[0\]\._4_
*966 dsa\[0\]\._5_
*967 dsa\[0\]\._6_
*968 dsa\[0\]\._6__36
*969 dsa\[0\]\._7_
*970 dsa\[0\]\._7__37
*971 dsa\[0\]\._8_
*972 dsa\[0\]\._9_
*973 dsa\[10\]\._3_
*974 dsa\[10\]\._4_
*975 dsa\[10\]\._5_
*976 dsa\[10\]\._6_
*977 dsa\[10\]\._7_
*978 dsa\[10\]\._8_
*979 dsa\[10\]\._9_
*980 dsa\[11\]\._3_
*981 dsa\[11\]\._4_
*982 dsa\[11\]\._5_
*983 dsa\[11\]\._6_
*984 dsa\[11\]\._7_
*985 dsa\[11\]\._8_
*986 dsa\[11\]\._9_
*987 dsa\[12\]\._3_
*988 dsa\[12\]\._4_
*989 dsa\[12\]\._5_
*990 dsa\[12\]\._6_
*991 dsa\[12\]\._7_
*992 dsa\[12\]\._8_
*993 dsa\[12\]\._9_
*994 dsa\[13\]\._3_
*995 dsa\[13\]\._4_
*996 dsa\[13\]\._5_
*997 dsa\[13\]\._6_
*998 dsa\[13\]\._7_
*999 dsa\[13\]\._8_
*1000 dsa\[13\]\._9_
*1001 dsa\[14\]\._3_
*1002 dsa\[14\]\._4_
*1003 dsa\[14\]\._5_
*1004 dsa\[14\]\._6_
*1005 dsa\[14\]\._7_
*1006 dsa\[14\]\._8_
*1007 dsa\[14\]\._9_
*1008 dsa\[15\]\._3_
*1009 dsa\[15\]\._4_
*1010 dsa\[15\]\._5_
*1011 dsa\[15\]\._6_
*1012 dsa\[15\]\._7_
*1013 dsa\[15\]\._8_
*1014 dsa\[15\]\._9_
*1015 dsa\[16\]\._3_
*1016 dsa\[16\]\._4_
*1017 dsa\[16\]\._5_
*1018 dsa\[16\]\._6_
*1019 dsa\[16\]\._7_
*1020 dsa\[16\]\._8_
*1021 dsa\[16\]\._9_
*1022 dsa\[17\]\._3_
*1023 dsa\[17\]\._4_
*1024 dsa\[17\]\._5_
*1025 dsa\[17\]\._6_
*1026 dsa\[17\]\._7_
*1027 dsa\[17\]\._8_
*1028 dsa\[17\]\._9_
*1029 dsa\[18\]\._3_
*1030 dsa\[18\]\._4_
*1031 dsa\[18\]\._5_
*1032 dsa\[18\]\._6_
*1033 dsa\[18\]\._7_
*1034 dsa\[18\]\._8_
*1035 dsa\[18\]\._9_
*1036 dsa\[19\]\._3_
*1037 dsa\[19\]\._4_
*1038 dsa\[19\]\._5_
*1039 dsa\[19\]\._6_
*1040 dsa\[19\]\._7_
*1041 dsa\[19\]\._8_
*1042 dsa\[19\]\._9_
*1043 dsa\[1\]\._3_
*1044 dsa\[1\]\._4_
*1045 dsa\[1\]\._5_
*1046 dsa\[1\]\._6_
*1047 dsa\[1\]\._7_
*1048 dsa\[1\]\._8_
*1049 dsa\[1\]\._9_
*1050 dsa\[20\]\._3_
*1051 dsa\[20\]\._4_
*1052 dsa\[20\]\._5_
*1053 dsa\[20\]\._6_
*1054 dsa\[20\]\._7_
*1055 dsa\[20\]\._8_
*1056 dsa\[20\]\._9_
*1057 dsa\[21\]\._3_
*1058 dsa\[21\]\._4_
*1059 dsa\[21\]\._5_
*1060 dsa\[21\]\._6_
*1061 dsa\[21\]\._7_
*1062 dsa\[21\]\._8_
*1063 dsa\[21\]\._9_
*1064 dsa\[22\]\._3_
*1065 dsa\[22\]\._4_
*1066 dsa\[22\]\._5_
*1067 dsa\[22\]\._6_
*1068 dsa\[22\]\._7_
*1069 dsa\[22\]\._8_
*1070 dsa\[22\]\._9_
*1071 dsa\[23\]\._3_
*1072 dsa\[23\]\._4_
*1073 dsa\[23\]\._5_
*1074 dsa\[23\]\._6_
*1075 dsa\[23\]\._7_
*1076 dsa\[23\]\._8_
*1077 dsa\[23\]\._9_
*1078 dsa\[24\]\._3_
*1079 dsa\[24\]\._4_
*1080 dsa\[24\]\._5_
*1081 dsa\[24\]\._6_
*1082 dsa\[24\]\._7_
*1083 dsa\[24\]\._8_
*1084 dsa\[24\]\._9_
*1085 dsa\[25\]\._3_
*1086 dsa\[25\]\._4_
*1087 dsa\[25\]\._5_
*1088 dsa\[25\]\._6_
*1089 dsa\[25\]\._7_
*1090 dsa\[25\]\._8_
*1091 dsa\[25\]\._9_
*1092 dsa\[26\]\._3_
*1093 dsa\[26\]\._4_
*1094 dsa\[26\]\._5_
*1095 dsa\[26\]\._6_
*1096 dsa\[26\]\._7_
*1097 dsa\[26\]\._8_
*1098 dsa\[26\]\._9_
*1099 dsa\[27\]\._3_
*1100 dsa\[27\]\._4_
*1101 dsa\[27\]\._5_
*1102 dsa\[27\]\._6_
*1103 dsa\[27\]\._7_
*1104 dsa\[27\]\._8_
*1105 dsa\[27\]\._9_
*1106 dsa\[28\]\._3_
*1107 dsa\[28\]\._4_
*1108 dsa\[28\]\._5_
*1109 dsa\[28\]\._6_
*1110 dsa\[28\]\._7_
*1111 dsa\[28\]\._8_
*1112 dsa\[28\]\._9_
*1113 dsa\[29\]\._3_
*1114 dsa\[29\]\._4_
*1115 dsa\[29\]\._5_
*1116 dsa\[29\]\._6_
*1117 dsa\[29\]\._7_
*1118 dsa\[29\]\._8_
*1119 dsa\[29\]\._9_
*1120 dsa\[2\]\._3_
*1121 dsa\[2\]\._4_
*1122 dsa\[2\]\._5_
*1123 dsa\[2\]\._6_
*1124 dsa\[2\]\._7_
*1125 dsa\[2\]\._8_
*1126 dsa\[2\]\._9_
*1127 dsa\[30\]\._3_
*1128 dsa\[30\]\._4_
*1129 dsa\[30\]\._5_
*1130 dsa\[30\]\._6_
*1131 dsa\[30\]\._7_
*1132 dsa\[30\]\._8_
*1133 dsa\[30\]\._9_
*1134 dsa\[31\]\._3_
*1135 dsa\[31\]\._4_
*1136 dsa\[31\]\._5_
*1137 dsa\[31\]\._6_
*1138 dsa\[31\]\._7_
*1139 dsa\[31\]\._8_
*1140 dsa\[31\]\._9_
*1141 dsa\[3\]\._3_
*1142 dsa\[3\]\._4_
*1143 dsa\[3\]\._5_
*1144 dsa\[3\]\._6_
*1145 dsa\[3\]\._7_
*1146 dsa\[3\]\._8_
*1147 dsa\[3\]\._9_
*1148 dsa\[4\]\._3_
*1149 dsa\[4\]\._4_
*1150 dsa\[4\]\._5_
*1151 dsa\[4\]\._6_
*1152 dsa\[4\]\._7_
*1153 dsa\[4\]\._8_
*1154 dsa\[4\]\._9_
*1155 dsa\[5\]\._3_
*1156 dsa\[5\]\._4_
*1157 dsa\[5\]\._5_
*1158 dsa\[5\]\._6_
*1159 dsa\[5\]\._7_
*1160 dsa\[5\]\._8_
*1161 dsa\[5\]\._9_
*1162 dsa\[6\]\._3_
*1163 dsa\[6\]\._4_
*1164 dsa\[6\]\._5_
*1165 dsa\[6\]\._6_
*1166 dsa\[6\]\._7_
*1167 dsa\[6\]\._8_
*1168 dsa\[6\]\._9_
*1169 dsa\[7\]\._3_
*1170 dsa\[7\]\._4_
*1171 dsa\[7\]\._5_
*1172 dsa\[7\]\._6_
*1173 dsa\[7\]\._7_
*1174 dsa\[7\]\._8_
*1175 dsa\[7\]\._9_
*1176 dsa\[8\]\._3_
*1177 dsa\[8\]\._4_
*1178 dsa\[8\]\._5_
*1179 dsa\[8\]\._6_
*1180 dsa\[8\]\._7_
*1181 dsa\[8\]\._8_
*1182 dsa\[8\]\._9_
*1183 dsa\[9\]\._3_
*1184 dsa\[9\]\._4_
*1185 dsa\[9\]\._5_
*1186 dsa\[9\]\._6_
*1187 dsa\[9\]\._7_
*1188 dsa\[9\]\._8_
*1189 dsa\[9\]\._9_
*1190 input1
*1191 input10
*1192 input11
*1193 input12
*1194 input13
*1195 input14
*1196 input15
*1197 input16
*1198 input17
*1199 input18
*1200 input19
*1201 input2
*1202 input20
*1203 input21
*1204 input22
*1205 input23
*1206 input24
*1207 input25
*1208 input26
*1209 input27
*1210 input28
*1211 input29
*1212 input3
*1213 input30
*1214 input31
*1215 input32
*1216 input33
*1217 input34
*1218 input4
*1219 input5
*1220 input6
*1221 input7
*1222 input8
*1223 input9
*1224 output35

*PORTS
a[0] I
a[10] I
a[11] I
a[12] I
a[13] I
a[14] I
a[15] I
a[16] I
a[17] I
a[18] I
a[19] I
a[1] I
a[20] I
a[21] I
a[22] I
a[23] I
a[24] I
a[25] I
a[26] I
a[27] I
a[28] I
a[29] I
a[2] I
a[30] I
a[31] I
a[3] I
a[4] I
a[5] I
a[6] I
a[7] I
a[8] I
a[9] I
clk I
rst I
x I
y O

*D_NET *1 0.0011388
*CONN
*P a[0] I
*I *1190:A I *D sky130_fd_sc_hd__buf_1
*CAP
1 a[0] 0.0005694
2 *1190:A 0.0005694
3 *1190:A *1193:A 0
*RES
1 a[0] *1190:A 24.9071 
*END

*D_NET *2 0.00102004
*CONN
*P a[10] I
*I *1201:A I *D sky130_fd_sc_hd__buf_1
*CAP
1 a[10] 0.000510022
2 *1201:A 0.000510022
3 *1201:A *1212:A 0
4 *1201:A *1215:A 0
*RES
1 a[10] *1201:A 23.9607 
*END

*D_NET *3 0.00110043
*CONN
*P a[11] I
*I *1212:A I *D sky130_fd_sc_hd__buf_1
*CAP
1 a[11] 0.000550213
2 *1212:A 0.000550213
3 *1212:A *1218:A 0
4 *1201:A *1212:A 0
*RES
1 a[11] *1212:A 24.7821 
*END

*D_NET *4 0.00110043
*CONN
*P a[12] I
*I *1218:A I *D sky130_fd_sc_hd__buf_1
*CAP
1 a[12] 0.000550213
2 *1218:A 0.000550213
3 *1218:A *1219:A 0
4 *1212:A *1218:A 0
*RES
1 a[12] *1218:A 24.7821 
*END

*D_NET *5 0.00102004
*CONN
*P a[13] I
*I *1219:A I *D sky130_fd_sc_hd__buf_1
*CAP
1 a[13] 0.000510022
2 *1219:A 0.000510022
3 *1219:A *1220:A 0
4 *1218:A *1219:A 0
*RES
1 a[13] *1219:A 23.9607 
*END

*D_NET *6 0.00105305
*CONN
*P a[14] I
*I *1220:A I *D sky130_fd_sc_hd__buf_1
*CAP
1 a[14] 0.000496508
2 *1220:A 0.000496508
3 *1220:A *1221:A 0
4 *1220:A *305:10 6.0038e-05
5 *1219:A *1220:A 0
*RES
1 a[14] *1220:A 23.9607 
*END

*D_NET *7 0.00113882
*CONN
*P a[15] I
*I *1221:A I *D sky130_fd_sc_hd__buf_1
*CAP
1 a[15] 0.00056941
2 *1221:A 0.00056941
3 *1221:A *1222:A 0
4 *1221:A *305:10 0
5 *1220:A *1221:A 0
*RES
1 a[15] *1221:A 24.9071 
*END

*D_NET *8 0.00102457
*CONN
*P a[16] I
*I *1222:A I *D sky130_fd_sc_hd__buf_1
*CAP
1 a[16] 0.000512287
2 *1222:A 0.000512287
3 *1222:A *1223:A 0
4 *1221:A *1222:A 0
*RES
1 a[16] *1222:A 23.9607 
*END

*D_NET *9 0.00110043
*CONN
*P a[17] I
*I *1223:A I *D sky130_fd_sc_hd__clkbuf_1
*CAP
1 a[17] 0.000550213
2 *1223:A 0.000550213
3 *1223:A *1191:A 0
4 *1222:A *1223:A 0
*RES
1 a[17] *1223:A 24.7821 
*END

*D_NET *10 0.00110043
*CONN
*P a[18] I
*I *1191:A I *D sky130_fd_sc_hd__clkbuf_1
*CAP
1 a[18] 0.000550213
2 *1191:A 0.000550213
3 *1191:A *1192:A 0
4 *1223:A *1191:A 0
*RES
1 a[18] *1191:A 24.7821 
*END

*D_NET *11 0.00102004
*CONN
*P a[19] I
*I *1192:A I *D sky130_fd_sc_hd__clkbuf_1
*CAP
1 a[19] 0.000510022
2 *1192:A 0.000510022
3 *1192:A *1194:A 0
4 *1191:A *1192:A 0
*RES
1 a[19] *1192:A 23.9607 
*END

*D_NET *12 0.00102457
*CONN
*P a[1] I
*I *1193:A I *D sky130_fd_sc_hd__buf_1
*CAP
1 a[1] 0.000512287
2 *1193:A 0.000512287
3 *1193:A *1205:A 0
4 *1190:A *1193:A 0
*RES
1 a[1] *1193:A 23.9607 
*END

*D_NET *13 0.00102004
*CONN
*P a[20] I
*I *1194:A I *D sky130_fd_sc_hd__clkbuf_1
*CAP
1 a[20] 0.000510022
2 *1194:A 0.000510022
3 *1194:A *1195:A 0
4 *1192:A *1194:A 0
*RES
1 a[20] *1194:A 23.9607 
*END

*D_NET *14 0.00110043
*CONN
*P a[21] I
*I *1195:A I *D sky130_fd_sc_hd__buf_1
*CAP
1 a[21] 0.000550213
2 *1195:A 0.000550213
3 *1195:A *1196:A 0
4 *1194:A *1195:A 0
*RES
1 a[21] *1195:A 24.7821 
*END

*D_NET *15 0.00110043
*CONN
*P a[22] I
*I *1196:A I *D sky130_fd_sc_hd__buf_1
*CAP
1 a[22] 0.000550213
2 *1196:A 0.000550213
3 *1196:A *1197:A 0
4 *1195:A *1196:A 0
*RES
1 a[22] *1196:A 24.7821 
*END

*D_NET *16 0.00122524
*CONN
*P a[23] I
*I *1197:A I *D sky130_fd_sc_hd__buf_1
*CAP
1 a[23] 0.000607488
2 *1197:A 0.000607488
3 *1197:A *969:A1 2.8266e-06
4 *1197:A *1198:A 0
5 *1197:A *278:8 7.43578e-06
6 *1196:A *1197:A 0
*RES
1 a[23] *1197:A 25.7286 
*END

*D_NET *17 0.00128413
*CONN
*P a[24] I
*I *1198:A I *D sky130_fd_sc_hd__buf_1
*CAP
1 a[24] 0.000624716
2 *1198:A 0.000624716
3 *1198:A *969:A1 2.8266e-06
4 *1198:A *1199:A 0
5 *1198:A *279:8 3.18676e-05
6 *1197:A *1198:A 0
*RES
1 a[24] *1198:A 26.1393 
*END

*D_NET *18 0.00102457
*CONN
*P a[25] I
*I *1199:A I *D sky130_fd_sc_hd__buf_1
*CAP
1 a[25] 0.000512287
2 *1199:A 0.000512287
3 *1199:A *1200:A 0
4 *1198:A *1199:A 0
*RES
1 a[25] *1199:A 23.9607 
*END

*D_NET *19 0.00110685
*CONN
*P a[26] I
*I *1200:A I *D sky130_fd_sc_hd__buf_1
*CAP
1 a[26] 0.000553426
2 *1200:A 0.000553426
3 *1200:A *1202:A 0
4 *1199:A *1200:A 0
*RES
1 a[26] *1200:A 24.7821 
*END

*D_NET *20 0.00106396
*CONN
*P a[27] I
*I *1202:A I *D sky130_fd_sc_hd__buf_1
*CAP
1 a[27] 0.00050282
2 *1202:A 0.00050282
3 *1202:A *1203:A 0
4 *1202:A *280:12 5.83233e-05
5 *1200:A *1202:A 0
*RES
1 a[27] *1202:A 23.9607 
*END

*D_NET *21 0.00102647
*CONN
*P a[28] I
*I *1203:A I *D sky130_fd_sc_hd__buf_1
*CAP
1 a[28] 0.000513234
2 *1203:A 0.000513234
3 *1203:A *1204:A 0
4 *1203:A *280:12 0
5 *1202:A *1203:A 0
*RES
1 a[28] *1203:A 23.9607 
*END

*D_NET *22 0.00111596
*CONN
*P a[29] I
*I *1204:A I *D sky130_fd_sc_hd__buf_1
*CAP
1 a[29] 0.000542127
2 *1204:A 0.000542127
3 *1204:A *1206:A 0
4 *1204:A *284:10 3.17067e-05
5 *1203:A *1204:A 0
*RES
1 a[29] *1204:A 24.7821 
*END

*D_NET *23 0.00111014
*CONN
*P a[2] I
*I *1205:A I *D sky130_fd_sc_hd__buf_1
*CAP
1 a[2] 0.000540616
2 *1205:A 0.000540616
3 *1205:A *1208:A 0
4 *1205:A *274:12 2.89114e-05
5 *1193:A *1205:A 0
*RES
1 a[2] *1205:A 24.4964 
*END

*D_NET *24 0.00150038
*CONN
*P a[30] I
*I *1206:A I *D sky130_fd_sc_hd__clkbuf_1
*CAP
1 a[30] 0.00034443
2 *1206:A 0.00034443
3 *1206:A *1207:A 0.000789554
4 *1206:A *284:10 2.19684e-05
5 *1204:A *1206:A 0
*RES
1 a[30] *1206:A 24.3714 
*END

*D_NET *25 0.00185874
*CONN
*P a[31] I
*I *1207:A I *D sky130_fd_sc_hd__clkbuf_1
*CAP
1 a[31] 0.000510773
2 *1207:A 0.000510773
3 *1207:A *1043:B 2.19684e-05
4 *1207:A *284:10 0
5 *1207:A *287:8 2.56694e-05
6 *1206:A *1207:A 0.000789554
*RES
1 a[31] *1207:A 27.4429 
*END

*D_NET *26 0.00111891
*CONN
*P a[3] I
*I *1208:A I *D sky130_fd_sc_hd__buf_1
*CAP
1 a[3] 0.000554331
2 *1208:A 0.000554331
3 *1208:A *1093:A2 1.02504e-05
4 *1208:A *1209:A 0
5 *1208:A *274:12 0
6 *1205:A *1208:A 0
*RES
1 a[3] *1208:A 24.7821 
*END

*D_NET *27 0.00111328
*CONN
*P a[4] I
*I *1209:A I *D sky130_fd_sc_hd__buf_1
*CAP
1 a[4] 0.000556638
2 *1209:A 0.000556638
3 *1209:A *1210:A 0
4 *1208:A *1209:A 0
*RES
1 a[4] *1209:A 24.7821 
*END

*D_NET *28 0.00114337
*CONN
*P a[5] I
*I *1210:A I *D sky130_fd_sc_hd__clkbuf_1
*CAP
1 a[5] 0.000571686
2 *1210:A 0.000571686
3 *1210:A *1211:A 0
4 *1209:A *1210:A 0
*RES
1 a[5] *1210:A 24.9071 
*END

*D_NET *29 0.00114143
*CONN
*P a[6] I
*I *1211:A I *D sky130_fd_sc_hd__clkbuf_1
*CAP
1 a[6] 0.000570715
2 *1211:A 0.000570715
3 *1211:A *1213:A 0
4 *1210:A *1211:A 0
*RES
1 a[6] *1211:A 24.9071 
*END

*D_NET *30 0.00102706
*CONN
*P a[7] I
*I *1213:A I *D sky130_fd_sc_hd__clkbuf_1
*CAP
1 a[7] 0.000513529
2 *1213:A 0.000513529
3 *1213:A *1214:A 0
4 *1211:A *1213:A 0
*RES
1 a[7] *1213:A 23.9607 
*END

*D_NET *31 0.00110655
*CONN
*P a[8] I
*I *1214:A I *D sky130_fd_sc_hd__clkbuf_1
*CAP
1 a[8] 0.000553277
2 *1214:A 0.000553277
3 *1214:A *1215:A 0
4 *1214:A *295:14 0
5 *1213:A *1214:A 0
*RES
1 a[8] *1214:A 24.7821 
*END

*D_NET *32 0.00110043
*CONN
*P a[9] I
*I *1215:A I *D sky130_fd_sc_hd__buf_1
*CAP
1 a[9] 0.000550213
2 *1215:A 0.000550213
3 *1201:A *1215:A 0
4 *1214:A *1215:A 0
*RES
1 a[9] *1215:A 24.7821 
*END

*D_NET *33 0.00687195
*CONN
*P clk I
*I *948:A I *D sky130_fd_sc_hd__clkbuf_16
*CAP
1 clk 0.00287118
2 *948:A 0
3 *33:15 0.00287118
4 *33:15 *1141:B 0
5 *33:15 *1142:B1 0.000435417
6 *33:15 *1143:B 6.35892e-05
7 *33:15 *1146:CLK 0.000186662
8 *33:15 *1146:D 0.00024981
9 *33:15 *1146:RESET_B 9.23759e-05
10 *33:15 *1147:D 0
11 *33:15 *1183:B 5.52238e-05
12 *33:15 *224:6 2.47833e-05
13 *33:15 *265:12 2.17375e-05
*RES
1 clk *33:15 44.0365 
2 *33:15 *948:A 9.3 
*END

*D_NET *34 0.00084331
*CONN
*P rst I
*I *1216:A I *D sky130_fd_sc_hd__buf_12
*CAP
1 rst 0.000421655
2 *1216:A 0.000421655
*RES
1 rst *1216:A 21.8357 
*END

*D_NET *37 0.000804438
*CONN
*P x I
*I *1217:A I *D sky130_fd_sc_hd__buf_12
*CAP
1 x 0.000402219
2 *1217:A 0.000402219
3 *1217:A *271:8 0
*RES
1 x *1217:A 22.9088 
*END

*D_NET *38 0.000705015
*CONN
*P y O
*I *1224:X O *D sky130_fd_sc_hd__buf_1
*CAP
1 y 0.000349854
2 *1224:X 0.000349854
3 y *40:39 5.30637e-06
*RES
1 *1224:X y 21.0874 
*END

*D_NET *39 0.0197681
*CONN
*I *956:A I *D sky130_fd_sc_hd__clkbuf_16
*I *954:A I *D sky130_fd_sc_hd__clkbuf_16
*I *949:A I *D sky130_fd_sc_hd__clkbuf_16
*I *950:A I *D sky130_fd_sc_hd__clkbuf_16
*I *953:A I *D sky130_fd_sc_hd__clkbuf_16
*I *955:A I *D sky130_fd_sc_hd__clkbuf_16
*I *952:A I *D sky130_fd_sc_hd__clkbuf_16
*I *951:A I *D sky130_fd_sc_hd__clkbuf_16
*I *948:X O *D sky130_fd_sc_hd__clkbuf_16
*CAP
1 *956:A 0.000260615
2 *954:A 0.000279213
3 *949:A 0.000708452
4 *950:A 0.0004355
5 *953:A 0.000286753
6 *955:A 0
7 *952:A 0
8 *951:A 0.000414383
9 *948:X 0.00051325
10 *39:70 0.00274499
11 *39:66 0.00188025
12 *39:51 0.00128054
13 *39:47 0.00135106
14 *39:40 0.00105885
15 *39:14 0.00103818
16 *39:10 0.00209924
17 *949:A *1020:RESET_B 9.69119e-06
18 *949:A *1056:CLK 4.22908e-05
19 *949:A *1056:RESET_B 0.000219397
20 *949:A *297:474 7.03295e-05
21 *949:A *302:18 0
22 *949:A *303:8 0
23 *950:A *302:18 0
24 *950:A *303:8 0
25 *950:A *303:14 2.39129e-05
26 *951:A *1064:C 0.000219711
27 *951:A *1066:A 1.02504e-05
28 *951:A *282:14 0.000146474
29 *951:A *296:12 0
30 *951:A *297:233 0.000359997
31 *953:A *1160:CLK 2.37575e-05
32 *953:A *1176:B 0
33 *953:A *1178:A 0
34 *953:A *1179:A 0
35 *953:A *45:55 0
36 *953:A *45:68 0
37 *953:A *278:10 0.00027338
38 *954:A *961:A 9.90431e-05
39 *39:10 *1007:D 0.0001098
40 *39:10 *1013:D 5.41494e-05
41 *39:10 *46:22 0
42 *39:10 *89:10 0.000165021
43 *39:10 *306:14 0
44 *39:14 *43:6 0.000224574
45 *39:14 *43:12 5.33334e-05
46 *39:40 *1003:A 5.52302e-05
47 *39:40 *1004:B 6.12902e-05
48 *39:40 *1007:D 7.92975e-05
49 *39:40 *46:6 0.000173328
50 *39:40 *46:10 0.000186669
51 *39:40 *306:14 0
52 *39:51 *983:A 9.0143e-05
53 *39:51 *1125:CLK 0
54 *39:51 *1179:A 0
55 *39:51 *1179:B 0
56 *39:51 *1183:C 0
57 *39:51 *1184:A1 0
58 *39:51 *265:12 0.000148189
59 *39:51 *266:12 0
60 *39:51 *277:10 0
61 *39:51 *278:10 0.00204761
62 *39:70 *1178:A 4.13496e-05
63 *39:70 *1178:B 5.52302e-05
64 *39:70 *44:74 0.000274294
65 *39:70 *44:85 9.90367e-05
*RES
1 *948:X *39:10 24.3893 
2 *39:10 *39:14 15.7143 
3 *39:14 *951:A 26.6571 
4 *39:14 *952:A 9.3 
5 *39:10 *39:40 20.5357 
6 *39:40 *955:A 9.3 
7 *39:40 *39:47 1.35714 
8 *39:47 *39:51 30.4286 
9 *39:51 *953:A 19.4429 
10 *39:51 *39:66 4.5 
11 *39:66 *39:70 29.2679 
12 *39:70 *950:A 21.8179 
13 *39:70 *949:A 26.4607 
14 *39:66 *954:A 13.5321 
15 *39:47 *956:A 13.1214 
*END

*D_NET *40 0.0135932
*CONN
*I *1112:CLK I *D sky130_fd_sc_hd__dfrtp_1
*I *1062:CLK I *D sky130_fd_sc_hd__dfrtp_1
*I *1118:CLK I *D sky130_fd_sc_hd__dfrtp_1
*I *1056:CLK I *D sky130_fd_sc_hd__dfrtp_1
*I *957:A I *D sky130_fd_sc_hd__clkbuf_4
*I *1041:CLK I *D sky130_fd_sc_hd__dfrtp_1
*I *1042:CLK I *D sky130_fd_sc_hd__dfrtp_1
*I *1132:CLK I *D sky130_fd_sc_hd__dfrtp_1
*I *1139:CLK I *D sky130_fd_sc_hd__dfrtp_1
*I *1140:CLK I *D sky130_fd_sc_hd__dfrtp_1
*I *949:X O *D sky130_fd_sc_hd__clkbuf_16
*CAP
1 *1112:CLK 0.000315281
2 *1062:CLK 0.000167439
3 *1118:CLK 0.000882107
4 *1056:CLK 0.000439835
5 *957:A 6.6906e-05
6 *1041:CLK 0.000179721
7 *1042:CLK 0
8 *1132:CLK 0.000308796
9 *1139:CLK 0
10 *1140:CLK 0.00036708
11 *949:X 0
12 *40:110 0.00054082
13 *40:95 0.00113289
14 *40:39 0.00103244
15 *40:33 0.000823345
16 *40:31 0.000392866
17 *40:16 0.00100747
18 *40:10 0.000660252
19 *40:8 0.000548555
20 *40:6 0.000235005
21 *1041:CLK *1140:D 1.93007e-05
22 *1041:CLK *1140:RESET_B 1.00477e-05
23 *1041:CLK *297:341 3.42707e-05
24 *1062:CLK *1062:RESET_B 0.000185124
25 *1062:CLK *1112:D 0
26 *1062:CLK *297:310 3.34366e-05
27 *1062:CLK *297:312 0.0001406
28 *1062:CLK *297:323 4.97876e-05
29 *1118:CLK *1113:A 5.33005e-05
30 *1118:CLK *1118:D 0.000224013
31 *1118:CLK *1118:RESET_B 0.000696034
32 *1132:CLK *271:8 0.000218404
33 *1140:CLK *1140:D 0.000375962
34 *1140:CLK *1140:RESET_B 6.64885e-05
35 *1140:CLK *297:337 5.83233e-05
36 *1140:CLK *297:341 5.84267e-05
37 *40:8 *297:327 9.95752e-05
38 *40:10 *297:327 0.000119618
39 *40:16 *1053:B 0
40 *40:16 *1133:D 0
41 *40:16 *297:327 0.000277524
42 *40:16 *297:331 0.000370567
43 *40:16 *297:333 0.000102545
44 *40:16 *297:335 5.83304e-05
45 *40:16 *297:337 0.000166983
46 *40:31 *1042:D 7.35879e-05
47 *40:33 *1042:D 1.83053e-05
48 *40:39 *1138:A1 0.00014285
49 *40:39 *1138:A2 8.87196e-05
50 *40:39 *1138:B1_N 5.52238e-05
51 *40:39 *1139:D 0
52 *40:39 *1224:A 0.000139482
53 *40:95 *297:323 3.17148e-05
54 *40:95 *297:325 0.000227729
55 *40:95 *297:327 0.00014209
56 *40:110 *297:323 0.000106456
57 y *40:39 5.30637e-06
58 *949:A *1056:CLK 4.22908e-05
*RES
1 *949:X *40:6 13.8 
2 *40:6 *40:8 1.33929 
3 *40:8 *40:10 1.64286 
4 *40:10 *40:16 13.2321 
5 *40:16 *1140:CLK 22.1571 
6 *40:16 *40:31 6.67857 
7 *40:31 *40:33 1.76786 
8 *40:33 *40:39 18.6786 
9 *40:39 *1139:CLK 13.8 
10 *40:39 *1132:CLK 20.9071 
11 *40:33 *1042:CLK 9.3 
12 *40:31 *1041:CLK 21.3893 
13 *40:10 *957:A 14.7464 
14 *40:8 *1056:CLK 20.5143 
15 *40:6 *40:95 4.98214 
16 *40:95 *1118:CLK 29.5679 
17 *40:95 *40:110 1.49107 
18 *40:110 *1062:CLK 18.2732 
19 *40:110 *1112:CLK 19.2554 
*END

*D_NET *41 0.00646194
*CONN
*I *1034:CLK I *D sky130_fd_sc_hd__dfrtp_1
*I *1020:CLK I *D sky130_fd_sc_hd__dfrtp_1
*I *1119:CLK I *D sky130_fd_sc_hd__dfrtp_1
*I *1027:CLK I *D sky130_fd_sc_hd__dfrtp_1
*I *958:A I *D sky130_fd_sc_hd__bufinv_16
*I *1133:CLK I *D sky130_fd_sc_hd__dfrtp_1
*I *1055:CLK I *D sky130_fd_sc_hd__dfrtp_1
*I *950:X O *D sky130_fd_sc_hd__clkbuf_16
*CAP
1 *1034:CLK 0.00050293
2 *1020:CLK 0.000154352
3 *1119:CLK 0.000159489
4 *1027:CLK 0.0006096
5 *958:A 0
6 *1133:CLK 0.000131639
7 *1055:CLK 0.000160245
8 *950:X 0
9 *41:56 0.000787325
10 *41:40 0.0006096
11 *41:38 0.000580877
12 *41:14 0.000590922
13 *41:10 0.000571611
14 *41:4 0.000668108
15 *1034:CLK *1035:RESET_B 0
16 *1034:CLK *1039:B 0.000100009
17 *1034:CLK *298:326 0
18 *1034:CLK *302:18 0
19 *1055:CLK *1055:D 0.000171497
20 *1055:CLK *1055:RESET_B 0.000162596
21 *1133:CLK *1133:D 5.00645e-05
22 *1133:CLK *124:10 0
23 *41:10 *124:10 0
24 *41:10 *298:547 4.35131e-05
25 *41:14 *1055:D 2.89114e-05
26 *41:38 *124:10 0
27 *41:38 *136:12 6.57937e-05
28 *41:38 *298:547 0.000101472
29 *41:56 *1053:A 0
30 *41:56 *1056:D 5.33882e-05
31 *41:56 *136:12 8.66228e-05
32 *41:56 *293:18 0
33 *41:56 *298:547 6.04162e-05
34 *41:56 *298:572 1.09595e-05
*RES
1 *950:X *41:4 9.3 
2 *41:4 *41:10 6.89286 
3 *41:10 *41:14 9.55357 
4 *41:14 *1055:CLK 13.5321 
5 *41:14 *1133:CLK 20.8536 
6 *41:10 *41:38 3.21429 
7 *41:38 *41:40 4.5 
8 *41:40 *958:A 9.3 
9 *41:40 *1027:CLK 18.8714 
10 *41:38 *41:56 14.0357 
11 *41:56 *1119:CLK 11.8893 
12 *41:56 *1020:CLK 11.8893 
13 *41:4 *1034:CLK 26.5679 
*END

*D_NET *42 0.0129991
*CONN
*I *1090:CLK I *D sky130_fd_sc_hd__dfrtp_1
*I *1097:CLK I *D sky130_fd_sc_hd__dfrtp_1
*I *1083:CLK I *D sky130_fd_sc_hd__dfrtp_1
*I *1091:CLK I *D sky130_fd_sc_hd__dfrtp_1
*I *1076:CLK I *D sky130_fd_sc_hd__dfrtp_1
*I *1098:CLK I *D sky130_fd_sc_hd__dfrtp_1
*I *1104:CLK I *D sky130_fd_sc_hd__dfrtp_1
*I *1111:CLK I *D sky130_fd_sc_hd__dfrtp_1
*I *1069:CLK I *D sky130_fd_sc_hd__dfrtp_1
*I *1105:CLK I *D sky130_fd_sc_hd__dfrtp_1
*I *951:X O *D sky130_fd_sc_hd__clkbuf_16
*CAP
1 *1090:CLK 0
2 *1097:CLK 0.000765707
3 *1083:CLK 0.000110955
4 *1091:CLK 7.42625e-05
5 *1076:CLK 0
6 *1098:CLK 0.00010313
7 *1104:CLK 0
8 *1111:CLK 0.000369891
9 *1069:CLK 1.55603e-05
10 *1105:CLK 0.000311264
11 *951:X 4.26984e-05
12 *42:120 0.00149004
13 *42:103 0.00129743
14 *42:88 0.000703681
15 *42:54 0.000566975
16 *42:52 0.000920782
17 *42:44 0.00104553
18 *42:34 0.000716217
19 *42:10 0.000535736
20 *42:8 0.000375586
21 *1069:CLK *1069:RESET_B 1.92905e-05
22 *1069:CLK *298:204 5.52302e-05
23 *1083:CLK *1085:A 5.49489e-05
24 *1083:CLK *1086:A2 5.33005e-05
25 *1083:CLK *1087:B 6.00103e-05
26 *1083:CLK *298:37 0.000137561
27 *1091:CLK *1091:D 5.65955e-05
28 *1097:CLK *1097:RESET_B 8.71192e-05
29 *1098:CLK *271:8 0.000109809
30 *1105:CLK *1069:D 0
31 *1105:CLK *1105:D 7.94632e-05
32 *1111:CLK *271:8 0.000416899
33 *42:10 *1105:D 0
34 *42:10 *298:196 0.000192585
35 *42:10 *298:204 0.000154762
36 *42:34 *298:196 0.000248493
37 *42:44 *1076:D 7.96294e-05
38 *42:44 *1076:RESET_B 0.000266993
39 *42:54 *271:8 0.000216098
40 *42:88 *298:194 0.000192585
41 *42:88 *298:196 0.000153047
42 *42:103 *1085:A 0.000144038
43 *42:103 *1088:B 0.000127246
44 *42:103 *1089:A1 1.76828e-05
45 *42:103 *171:10 1.0033e-05
46 *42:103 *298:194 0.000368111
47 *42:120 *1090:RESET_B 1.12381e-05
48 *42:120 *1097:RESET_B 3.80414e-05
49 *42:120 *171:10 0.000121842
50 *42:120 *297:274 4.29492e-05
51 *42:120 *297:276 3.80385e-05
*RES
1 *951:X *42:8 14.3357 
2 *42:8 *42:10 4.98214 
3 *42:10 *1105:CLK 19.0679 
4 *42:10 *1069:CLK 14.3357 
5 *42:8 *42:34 3.16071 
6 *42:34 *42:44 10.9464 
7 *42:44 *42:52 14.2143 
8 *42:52 *42:54 4.98214 
9 *42:54 *1111:CLK 23.3357 
10 *42:54 *1104:CLK 13.8 
11 *42:52 *1098:CLK 16.3536 
12 *42:44 *1076:CLK 9.3 
13 *42:34 *42:88 8.875 
14 *42:88 *1091:CLK 10.6571 
15 *42:88 *42:103 13.3929 
16 *42:103 *1083:CLK 16.3893 
17 *42:103 *42:120 14.3929 
18 *42:120 *1097:CLK 19.2286 
19 *42:120 *1090:CLK 9.3 
*END

*D_NET *43 0.00828708
*CONN
*I *1063:CLK I *D sky130_fd_sc_hd__dfrtp_1
*I *1013:CLK I *D sky130_fd_sc_hd__dfrtp_1
*I *999:CLK I *D sky130_fd_sc_hd__dfrtp_1
*I *1000:CLK I *D sky130_fd_sc_hd__dfrtp_1
*I *1084:CLK I *D sky130_fd_sc_hd__dfrtp_1
*I *1077:CLK I *D sky130_fd_sc_hd__dfrtp_1
*I *1006:CLK I *D sky130_fd_sc_hd__dfrtp_1
*I *959:A I *D sky130_fd_sc_hd__clkbuf_8
*I *1070:CLK I *D sky130_fd_sc_hd__dfrtp_1
*I *952:X O *D sky130_fd_sc_hd__clkbuf_16
*CAP
1 *1063:CLK 0.000496201
2 *1013:CLK 0.000356148
3 *999:CLK 0.00026306
4 *1000:CLK 0.000118224
5 *1084:CLK 0
6 *1077:CLK 3.72884e-05
7 *1006:CLK 0
8 *959:A 0.000240978
9 *1070:CLK 0.000200797
10 *952:X 0.000322178
11 *43:79 0.00105974
12 *43:54 0.000221021
13 *43:50 0.000564533
14 *43:39 0.000338672
15 *43:25 0.000240978
16 *43:23 0.000207095
17 *43:12 0.000463283
18 *43:6 0.00068767
19 *959:A *1077:D 0.000169373
20 *999:CLK *999:D 4.79842e-05
21 *999:CLK *302:10 0.000301526
22 *999:CLK *303:8 0
23 *1000:CLK *1084:RESET_B 0.000139087
24 *1013:CLK *1013:D 5.62995e-05
25 *1013:CLK *1063:D 0.000215861
26 *1013:CLK *297:175 1.17968e-05
27 *1013:CLK *297:181 2.37817e-05
28 *1013:CLK *302:10 0
29 *1063:CLK *1063:D 0.00012542
30 *1070:CLK *1070:RESET_B 6.81335e-05
31 *43:12 *297:171 0
32 *43:12 *302:10 8.06331e-05
33 *43:23 *297:171 0
34 *43:23 *302:10 0.000103993
35 *43:39 *297:171 0
36 *43:39 *302:10 0.000105347
37 *43:39 *303:8 0
38 *43:50 *302:10 0.000212597
39 *43:50 *303:8 0
40 *43:54 *1084:D 0.000129826
41 *43:54 *1084:RESET_B 0.00019237
42 *43:79 *297:173 0.000153889
43 *43:79 *297:175 5.33882e-05
44 *43:79 *302:10 0
45 *39:14 *43:6 0.000224574
46 *39:14 *43:12 5.33334e-05
*RES
1 *952:X *43:6 13.5321 
2 *43:6 *43:12 7.39286 
3 *43:12 *1070:CLK 17.2107 
4 *43:12 *43:23 2.55357 
5 *43:23 *43:25 4.5 
6 *43:25 *959:A 13.9429 
7 *43:25 *1006:CLK 9.3 
8 *43:23 *43:39 2.55357 
9 *43:39 *1077:CLK 14.3357 
10 *43:39 *43:50 4.98214 
11 *43:50 *43:54 7.91071 
12 *43:54 *1084:CLK 9.3 
13 *43:54 *1000:CLK 11.8893 
14 *43:50 *999:CLK 20.9071 
15 *43:6 *43:79 9.48214 
16 *43:79 *1013:CLK 21.8179 
17 *43:79 *1063:CLK 19.9964 
*END

*D_NET *44 0.00403328
*CONN
*I *1182:CLK I *D sky130_fd_sc_hd__dfrtp_1
*I *1014:CLK I *D sky130_fd_sc_hd__dfrtp_1
*I *960:A I *D sky130_fd_sc_hd__clkbuf_8
*I *1181:CLK I *D sky130_fd_sc_hd__dfrtp_1
*I *1021:CLK I *D sky130_fd_sc_hd__dfrtp_1
*I *1175:CLK I *D sky130_fd_sc_hd__dfrtp_1
*I *1028:CLK I *D sky130_fd_sc_hd__dfrtp_1
*I *1035:CLK I *D sky130_fd_sc_hd__dfrtp_1
*I *1174:CLK I *D sky130_fd_sc_hd__dfrtp_1
*I *953:X O *D sky130_fd_sc_hd__clkbuf_16
*CAP
1 *1182:CLK 0.000171549
2 *1014:CLK 0
3 *960:A 0
4 *1181:CLK 0
5 *1021:CLK 3.72884e-05
6 *1175:CLK 0
7 *1028:CLK 2.91823e-05
8 *1035:CLK 3.72884e-05
9 *1174:CLK 0.000106106
10 *953:X 0.000178419
11 *44:85 0.00034093
12 *44:74 0.000419871
13 *44:56 3.72884e-05
14 *44:54 0.000367674
15 *44:18 0.000394908
16 *44:16 0.000421833
17 *44:10 0.00028172
18 *44:8 0.000436187
19 *1028:CLK *298:384 1.92789e-05
20 *1174:CLK *1174:D 4.79842e-05
21 *1182:CLK *1014:D 6.80593e-05
22 *1182:CLK *1179:A 0
23 *1182:CLK *1179:B 0
24 *1182:CLK *1182:D 0
25 *44:10 *1025:B 0
26 *44:10 *1028:D 6.39262e-05
27 *44:10 *1181:D 0
28 *44:16 *1028:D 5.16759e-05
29 *44:16 *1175:D 6.71889e-05
30 *44:16 *1181:D 0
31 *44:16 *297:400 0
32 *44:18 *1035:D 0
33 *44:18 *1175:D 8.15939e-05
34 *44:54 *1181:D 0
35 *44:74 *1021:D 0
36 *44:85 *1014:RESET_B 0
37 *44:85 *1179:A 0
38 *39:70 *44:74 0.000274294
39 *39:70 *44:85 9.90367e-05
*RES
1 *953:X *44:8 16.3893 
2 *44:8 *44:10 3.16071 
3 *44:10 *44:16 3.21429 
4 *44:16 *44:18 4.98214 
5 *44:18 *1174:CLK 16.05 
6 *44:18 *1035:CLK 14.3357 
7 *44:16 *1028:CLK 14.3357 
8 *44:10 *1175:CLK 13.8 
9 *44:8 *44:54 1.94643 
10 *44:54 *44:56 4.5 
11 *44:56 *1021:CLK 9.83571 
12 *44:56 *1181:CLK 9.3 
13 *44:54 *44:74 9.94643 
14 *44:74 *960:A 9.3 
15 *44:74 *44:85 7.69643 
16 *44:85 *1014:CLK 13.8 
17 *44:85 *1182:CLK 17.3 
*END

*D_NET *45 0.0110386
*CONN
*I *1147:CLK I *D sky130_fd_sc_hd__dfrtp_1
*I *1154:CLK I *D sky130_fd_sc_hd__dfrtp_1
*I *1153:CLK I *D sky130_fd_sc_hd__dfrtp_1
*I *961:A I *D sky130_fd_sc_hd__clkinv_2
*I *1160:CLK I *D sky130_fd_sc_hd__dfrtp_1
*I *1161:CLK I *D sky130_fd_sc_hd__dfrtp_1
*I *1167:CLK I *D sky130_fd_sc_hd__dfrtp_1
*I *1168:CLK I *D sky130_fd_sc_hd__dfrtp_1
*I *954:X O *D sky130_fd_sc_hd__clkbuf_16
*CAP
1 *1147:CLK 0.000112636
2 *1154:CLK 0.00013456
3 *1153:CLK 0.000207513
4 *961:A 3.75792e-05
5 *1160:CLK 0.000118171
6 *1161:CLK 7.32485e-05
7 *1167:CLK 0.000635584
8 *1168:CLK 0.000124379
9 *954:X 0
10 *45:92 0.000821328
11 *45:68 0.00048739
12 *45:55 0.000822649
13 *45:18 0.000893464
14 *45:16 0.000529612
15 *45:10 0.00113218
16 *45:4 0.000921265
17 *1153:CLK *263:8 1.02504e-05
18 *1153:CLK *278:10 0.00012742
19 *1153:CLK *279:10 0
20 *1154:CLK *1154:D 5.5782e-05
21 *1160:CLK *1160:D 3.18676e-05
22 *1161:CLK *1161:RESET_B 8.25897e-05
23 *1161:CLK *1163:A1 0.000225609
24 *1161:CLK *1164:A 5.52302e-05
25 *1161:CLK *1164:B 5.33005e-05
26 *1167:CLK *1166:A1 9.0145e-05
27 *1167:CLK *1167:D 0.000126629
28 *1167:CLK *1170:A2 1.04232e-05
29 *1167:CLK *279:16 3.97657e-05
30 *1168:CLK *1162:A 0.000125717
31 *1168:CLK *1162:B 0.000221634
32 *1168:CLK *1164:A 4.27437e-05
33 *1168:CLK *1166:B1_N 6.05161e-06
34 *1168:CLK *1168:RESET_B 2.44318e-05
35 *1168:CLK *249:16 7.3237e-05
36 *1168:CLK *297:10 0.00012401
37 *45:10 *1155:A 0.00013966
38 *45:10 *1157:B 0.000125731
39 *45:10 *281:10 0
40 *45:10 *298:429 2.62984e-05
41 *45:16 *1155:A 0.000126446
42 *45:16 *1156:B1 0.00015304
43 *45:16 *1157:B 5.58941e-05
44 *45:16 *279:10 0
45 *45:16 *297:44 0.000569
46 *45:18 *1162:A 0.000117196
47 *45:18 *1163:B1 0.00012401
48 *45:18 *297:10 7.90803e-05
49 *45:18 *297:20 0.000114759
50 *45:18 *297:44 6.98302e-05
51 *45:55 *1160:D 0.000193319
52 *45:55 *1160:RESET_B 8.79458e-05
53 *45:68 *1176:B 0
54 *45:68 *278:10 9.27685e-05
55 *45:68 *279:10 0
56 *45:92 *1151:B 0.000190858
57 *45:92 *1154:D 7.15846e-05
58 *953:A *1160:CLK 2.37575e-05
59 *953:A *45:55 0
60 *953:A *45:68 0
61 *954:A *961:A 9.90431e-05
*RES
1 *954:X *45:4 9.3 
2 *45:4 *45:10 10.8571 
3 *45:10 *45:16 9.08929 
4 *45:16 *45:18 3.46429 
5 *45:18 *1168:CLK 18.0321 
6 *45:18 *1167:CLK 22.05 
7 *45:16 *1161:CLK 16.3893 
8 *45:10 *45:55 10.8036 
9 *45:55 *1160:CLK 11.4964 
10 *45:55 *45:68 9.17857 
11 *45:68 *961:A 14.7464 
12 *45:68 *1153:CLK 18.4786 
13 *45:4 *45:92 14.2857 
14 *45:92 *1154:CLK 16.6571 
15 *45:92 *1147:CLK 15.7464 
*END

*D_NET *46 0.00872886
*CONN
*I *962:A I *D sky130_fd_sc_hd__clkinv_2
*I *992:CLK I *D sky130_fd_sc_hd__dfrtp_1
*I *985:CLK I *D sky130_fd_sc_hd__dfrtp_1
*I *979:CLK I *D sky130_fd_sc_hd__dfrtp_1
*I *1125:CLK I *D sky130_fd_sc_hd__dfrtp_1
*I *1007:CLK I *D sky130_fd_sc_hd__dfrtp_1
*I *1188:CLK I *D sky130_fd_sc_hd__dfrtp_1
*I *978:CLK I *D sky130_fd_sc_hd__dfrtp_1
*I *955:X O *D sky130_fd_sc_hd__clkbuf_16
*CAP
1 *962:A 0
2 *992:CLK 0.000690179
3 *985:CLK 0.000119763
4 *979:CLK 0
5 *1125:CLK 0.000377499
6 *1007:CLK 0
7 *1188:CLK 0.000252485
8 *978:CLK 0.000107097
9 *955:X 6.46795e-05
10 *46:79 0.000991283
11 *46:55 0.000852024
12 *46:22 0.000574954
13 *46:18 0.00042025
14 *46:12 0.000810279
15 *46:10 0.000377611
16 *46:6 0.000130075
17 *978:CLK *978:D 3.17211e-05
18 *978:CLK *978:RESET_B 9.76689e-05
19 *985:CLK *1005:A1 5.52238e-05
20 *985:CLK *82:12 5.33005e-05
21 *985:CLK *297:165 0.000312209
22 *992:CLK *991:A1 0
23 *992:CLK *992:D 6.05161e-06
24 *992:CLK *68:10 0
25 *992:CLK *82:12 0.000257146
26 *992:CLK *84:8 0
27 *992:CLK *307:10 0
28 *1125:CLK *983:A 4.1331e-06
29 *1125:CLK *277:10 0.000173076
30 *1188:CLK *1010:B 2.89016e-05
31 *1188:CLK *1011:A 5.80706e-06
32 *1188:CLK *1188:RESET_B 0.000156427
33 *1188:CLK *89:10 0.000212841
34 *1188:CLK *298:645 0
35 *46:12 *1007:D 0
36 *46:12 *298:667 0
37 *46:18 *1007:D 0
38 *46:18 *298:667 0
39 *46:22 *1007:D 4.1331e-06
40 *46:22 *89:10 0.000163755
41 *46:22 *298:645 0
42 *46:22 *298:667 0
43 *46:55 *984:A1 0.000397784
44 *46:55 *985:RESET_B 0.000486447
45 *46:79 *1003:A 0
46 *46:79 *1004:B 0.000128154
47 *46:79 *1007:D 0
48 *46:79 *82:12 2.59004e-05
49 *46:79 *298:667 0
50 *39:10 *46:22 0
51 *39:40 *46:6 0.000173328
52 *39:40 *46:10 0.000186669
53 *39:51 *1125:CLK 0
*RES
1 *955:X *46:6 11.0679 
2 *46:6 *46:10 6.26786 
3 *46:10 *46:12 2.25 
4 *46:12 *46:18 8 
5 *46:18 *46:22 9.48214 
6 *46:22 *978:CLK 16.1036 
7 *46:22 *1188:CLK 20.55 
8 *46:18 *1007:CLK 9.3 
9 *46:12 *46:55 15.3214 
10 *46:55 *1125:CLK 24.7821 
11 *46:55 *979:CLK 9.3 
12 *46:10 *46:79 3.82143 
13 *46:79 *985:CLK 17.2286 
14 *46:79 *992:CLK 26.9429 
15 *46:6 *962:A 9.3 
*END

*D_NET *47 0.0107454
*CONN
*I *1126:CLK I *D sky130_fd_sc_hd__dfrtp_1
*I *1189:CLK I *D sky130_fd_sc_hd__dfrtp_1
*I *1146:CLK I *D sky130_fd_sc_hd__dfrtp_1
*I *1049:CLK I *D sky130_fd_sc_hd__dfrtp_1
*I *986:CLK I *D sky130_fd_sc_hd__dfrtp_1
*I *972:CLK I *D sky130_fd_sc_hd__dfrtp_1
*I *971:CLK I *D sky130_fd_sc_hd__dfrtp_1
*I *1048:CLK I *D sky130_fd_sc_hd__dfrtp_1
*I *993:CLK I *D sky130_fd_sc_hd__dfrtp_1
*I *963:A I *D sky130_fd_sc_hd__clkbuf_4
*I *956:X O *D sky130_fd_sc_hd__clkbuf_16
*CAP
1 *1126:CLK 6.58358e-05
2 *1189:CLK 0
3 *1146:CLK 0.000205301
4 *1049:CLK 6.27375e-05
5 *986:CLK 0
6 *972:CLK 3.2426e-05
7 *971:CLK 0.000171566
8 *1048:CLK 0.000637033
9 *993:CLK 0
10 *963:A 0
11 *956:X 0.000298624
12 *47:120 0.000240882
13 *47:99 0.000785148
14 *47:83 0.000276276
15 *47:40 0.000885739
16 *47:31 0.000439797
17 *47:25 0.000491186
18 *47:21 0.000390763
19 *47:12 0.000354789
20 *47:6 0.000977092
21 *971:CLK *969:A1 0
22 *971:CLK *971:D 0.000140708
23 *971:CLK *278:10 0.000190162
24 *971:CLK *298:113 1.3701e-05
25 *971:CLK *298:122 0.000275335
26 *1048:CLK *969:A2 8.18783e-05
27 *1048:CLK *969:B1_N 1.95646e-05
28 *1048:CLK *992:RESET_B 1.58163e-05
29 *1048:CLK *48:14 0.000454077
30 *1048:CLK *297:667 5.19842e-06
31 *1049:CLK *297:645 6.87574e-05
32 *1126:CLK *1126:RESET_B 4.70078e-05
33 *1146:CLK *1146:D 3.18676e-05
34 *1146:CLK *1146:RESET_B 8.33875e-05
35 *1146:CLK *279:10 0
36 *1146:CLK *297:113 7.05447e-05
37 *47:12 *279:10 0.000179656
38 *47:12 *297:637 0
39 *47:21 *279:10 0.000181352
40 *47:21 *297:637 0
41 *47:25 *279:10 0.000175779
42 *47:31 *967:A 0
43 *47:31 *278:10 0.000396427
44 *47:31 *279:10 0
45 *47:31 *297:697 0.000177948
46 *47:40 *969:A1 0
47 *47:40 *992:RESET_B 0.000117196
48 *47:40 *278:10 0.000214349
49 *47:40 *279:10 0
50 *47:40 *297:697 3.34295e-05
51 *47:83 *986:D 0.000203121
52 *47:83 *986:RESET_B 4.96155e-05
53 *47:83 *297:645 0.000151071
54 *47:99 *279:10 0
55 *47:99 *297:113 0.000347354
56 *47:99 *297:122 0.000264844
57 *47:99 *297:637 0.000117144
58 *47:120 *1126:RESET_B 6.62868e-05
59 *47:120 *1189:RESET_B 2.29097e-05
60 *47:120 *297:99 4.70078e-05
61 *33:15 *1146:CLK 0.000186662
*RES
1 *956:X *47:6 12.7107 
2 *47:6 *47:12 8.92857 
3 *47:12 *963:A 13.8 
4 *47:12 *47:21 2.40179 
5 *47:21 *47:25 6.90179 
6 *47:25 *47:31 12.8929 
7 *47:31 *993:CLK 13.8 
8 *47:31 *47:40 2.85714 
9 *47:40 *1048:CLK 23.8357 
10 *47:40 *971:CLK 19.3714 
11 *47:25 *972:CLK 9.83571 
12 *47:21 *47:83 10.3661 
13 *47:83 *986:CLK 9.3 
14 *47:83 *1049:CLK 10.6571 
15 *47:6 *47:99 14.9464 
16 *47:99 *1146:CLK 18.9071 
17 *47:99 *47:120 7.91071 
18 *47:120 *1189:CLK 9.3 
19 *47:120 *1126:CLK 10.6571 
*END

*D_NET *48 0.0011498
*CONN
*I *966:A I *D sky130_fd_sc_hd__nand2_1
*I *969:B1_N I *D sky130_fd_sc_hd__a21bo_1
*I *964:Y O *D sky130_fd_sc_hd__nand3_1
*CAP
1 *966:A 0
2 *969:B1_N 8.19927e-06
3 *964:Y 0.000194795
4 *48:14 0.000202994
5 *969:B1_N *969:A2 5.71472e-05
6 *48:14 *969:A2 3.00323e-05
7 *48:14 *49:12 5.33334e-05
8 *48:14 *281:10 5.01213e-05
9 *48:14 *297:667 7.95313e-05
10 *1048:CLK *969:B1_N 1.95646e-05
11 *1048:CLK *48:14 0.000454077
*RES
1 *964:Y *48:14 24.6036 
2 *48:14 *969:B1_N 9.83571 
3 *48:14 *966:A 9.3 
*END

*D_NET *49 0.00103858
*CONN
*I *966:B I *D sky130_fd_sc_hd__nand2_1
*I *969:A2 I *D sky130_fd_sc_hd__a21bo_1
*I *965:X O *D sky130_fd_sc_hd__a21o_1
*CAP
1 *966:B 0
2 *969:A2 0.000211585
3 *965:X 0.000118622
4 *49:12 0.000330207
5 *969:A2 *297:667 5.52302e-05
6 *49:12 *971:RESET_B 5.16759e-05
7 *49:12 *281:10 0
8 *49:12 *297:667 4.88637e-05
9 *969:B1_N *969:A2 5.71472e-05
10 *1048:CLK *969:A2 8.18783e-05
11 *48:14 *969:A2 3.00323e-05
12 *48:14 *49:12 5.33334e-05
*RES
1 *965:X *49:12 21.1929 
2 *49:12 *969:A2 13.5679 
3 *49:12 *966:B 9.3 
*END

*D_NET *50 0.000721177
*CONN
*I *967:B I *D sky130_fd_sc_hd__xnor2_1
*I *966:Y O *D sky130_fd_sc_hd__nand2_1
*CAP
1 *967:B 0.000249612
2 *966:Y 0.000249612
3 *967:B *972:D 5.30637e-06
4 *967:B *279:10 0.000113381
5 *967:B *297:673 0.000103267
*RES
1 *966:Y *967:B 33.0286 
*END

*D_NET *51 0.000555819
*CONN
*I *964:A I *D sky130_fd_sc_hd__nand3_1
*I *965:B1 I *D sky130_fd_sc_hd__a21o_1
*I *971:Q O *D sky130_fd_sc_hd__dfrtp_1
*CAP
1 *964:A 7.20176e-05
2 *965:B1 1.99857e-05
3 *971:Q 6.06086e-05
4 *51:6 0.000152612
5 *964:A *965:A1 2.44318e-05
6 *964:A *965:A2 0.000104956
7 *964:A *288:10 3.57366e-05
8 *964:A *298:122 1.74352e-05
9 *965:B1 *965:A2 1.04232e-05
10 *51:6 *298:122 5.76121e-05
*RES
1 *971:Q *51:6 10.6571 
2 *51:6 *965:B1 9.72857 
3 *51:6 *964:A 11.4964 
*END

*D_NET *52 0.000551322
*CONN
*I *971:D I *D sky130_fd_sc_hd__dfrtp_1
*I *969:X O *D sky130_fd_sc_hd__a21bo_1
*CAP
1 *971:D 0.000167648
2 *969:X 0.000167648
3 *971:D *969:A1 4.57445e-05
4 *971:D *298:122 2.95726e-05
5 *971:CLK *971:D 0.000140708
*RES
1 *969:X *971:D 31.4214 
*END

*D_NET *53 0.00118079
*CONN
*I *1046:A I *D sky130_fd_sc_hd__xnor2_1
*I *1047:A1 I *D sky130_fd_sc_hd__a21bo_1
*I *972:Q O *D sky130_fd_sc_hd__dfrtp_1
*CAP
1 *1046:A 0
2 *1047:A1 0.000179375
3 *972:Q 0.000192668
4 *53:8 0.000372043
5 *1047:A1 *1045:B 0.000112106
6 *1047:A1 *1046:B 0.000128161
7 *1047:A1 *283:10 0
8 *1047:A1 *285:14 0.000196442
*RES
1 *972:Q *53:8 12.3179 
2 *53:8 *1047:A1 23.5143 
3 *53:8 *1046:A 9.3 
*END

*D_NET *54 0.000334
*CONN
*I *972:D I *D sky130_fd_sc_hd__dfrtp_1
*I *967:Y O *D sky130_fd_sc_hd__xnor2_1
*CAP
1 *972:D 0.000164347
2 *967:Y 0.000164347
3 *972:D *279:10 0
4 *972:D *281:10 0
5 *967:B *972:D 5.30637e-06
*RES
1 *967:Y *972:D 29.8857 
*END

*D_NET *55 0.000902547
*CONN
*I *977:B1_N I *D sky130_fd_sc_hd__a21bo_1
*I *975:A I *D sky130_fd_sc_hd__nand2_1
*I *973:Y O *D sky130_fd_sc_hd__nand3_1
*CAP
1 *977:B1_N 0
2 *975:A 0.000103691
3 *973:Y 0.000194419
4 *55:12 0.00029811
5 *975:A *977:A1 4.88637e-05
6 *975:A *977:A2 5.52238e-05
7 *55:12 *977:A2 0.000122159
8 *55:12 *56:10 0
9 *55:12 *58:16 8.00806e-05
*RES
1 *973:Y *55:12 21.5143 
2 *55:12 *975:A 11.5143 
3 *55:12 *977:B1_N 9.3 
*END

*D_NET *56 0.000749545
*CONN
*I *975:B I *D sky130_fd_sc_hd__nand2_1
*I *977:A2 I *D sky130_fd_sc_hd__a21bo_1
*I *974:X O *D sky130_fd_sc_hd__a21o_1
*CAP
1 *975:B 0
2 *977:A2 4.74472e-05
3 *974:X 9.43027e-05
4 *56:10 0.00014175
5 *977:A2 *977:A1 0.000232399
6 *56:10 *976:A 1.46717e-05
7 *56:10 *976:B 4.15914e-05
8 *56:10 *58:16 0
9 *975:A *977:A2 5.52238e-05
10 *55:12 *977:A2 0.000122159
11 *55:12 *56:10 0
*RES
1 *974:X *56:10 19.9429 
2 *56:10 *977:A2 11.8893 
3 *56:10 *975:B 9.3 
*END

*D_NET *57 0.000309643
*CONN
*I *976:B I *D sky130_fd_sc_hd__xnor2_1
*I *975:Y O *D sky130_fd_sc_hd__nand2_1
*CAP
1 *976:B 6.44665e-05
2 *975:Y 6.44665e-05
3 *976:B *976:A 0.000129868
4 *976:B *58:16 0
5 *976:B *276:16 9.25014e-06
6 *976:B *277:10 0
7 *56:10 *976:B 4.15914e-05
*RES
1 *975:Y *976:B 29.5464 
*END

*D_NET *58 0.0011338
*CONN
*I *974:B1 I *D sky130_fd_sc_hd__a21o_1
*I *973:A I *D sky130_fd_sc_hd__nand3_1
*I *978:Q O *D sky130_fd_sc_hd__dfrtp_1
*CAP
1 *974:B1 0.000140073
2 *973:A 0
3 *978:Q 0.00024973
4 *58:16 0.000389803
5 *974:B1 *276:16 5.71472e-05
6 *58:16 *976:A 0
7 *58:16 *978:D 7.66558e-05
8 *58:16 *60:10 0
9 *58:16 *298:645 0.000120402
10 *58:16 *298:667 1.99099e-05
11 *976:B *58:16 0
12 *55:12 *58:16 8.00806e-05
13 *56:10 *58:16 0
*RES
1 *978:Q *58:16 19.6036 
2 *58:16 *973:A 13.8 
3 *58:16 *974:B1 15.6929 
*END

*D_NET *59 0.00122741
*CONN
*I *978:D I *D sky130_fd_sc_hd__dfrtp_1
*I *977:X O *D sky130_fd_sc_hd__a21bo_1
*CAP
1 *978:D 0.000498575
2 *977:X 0.000498575
3 *978:D *978:RESET_B 4.35195e-05
4 *978:D *298:645 7.83659e-05
5 *978:CLK *978:D 3.17211e-05
6 *58:16 *978:D 7.66558e-05
*RES
1 *977:X *978:D 34.158 
*END

*D_NET *60 0.00220038
*CONN
*I *976:A I *D sky130_fd_sc_hd__xnor2_1
*I *977:A1 I *D sky130_fd_sc_hd__a21bo_1
*I *1189:Q O *D sky130_fd_sc_hd__dfrtp_1
*CAP
1 *976:A 0.000118105
2 *977:A1 0.000144141
3 *1189:Q 0.000625041
4 *60:10 0.000887287
5 *976:A *277:10 0
6 *60:10 *277:10 0
7 *975:A *977:A1 4.88637e-05
8 *976:B *976:A 0.000129868
9 *977:A2 *977:A1 0.000232399
10 *56:10 *976:A 1.46717e-05
11 *58:16 *976:A 0
12 *58:16 *60:10 0
*RES
1 *1189:Q *60:10 21.3179 
2 *60:10 *977:A1 17.2107 
3 *60:10 *976:A 16.3536 
*END

*D_NET *61 0.00320153
*CONN
*I *983:A I *D sky130_fd_sc_hd__xnor2_1
*I *984:A1 I *D sky130_fd_sc_hd__a21bo_1
*I *979:Q O *D sky130_fd_sc_hd__dfrtp_1
*CAP
1 *983:A 0.000304935
2 *984:A1 0.000211514
3 *979:Q 0.000303609
4 *61:6 0.000820058
5 *983:A *983:B 0.000128154
6 *983:A *984:B1_N 0.000181378
7 *983:A *63:10 3.42573e-05
8 *983:A *68:10 3.14048e-05
9 *983:A *278:10 0.000151638
10 *984:A1 *979:D 0.000159796
11 *984:A1 *985:RESET_B 6.3627e-05
12 *61:6 *979:RESET_B 2.81497e-05
13 *61:6 *985:RESET_B 0.000242087
14 *61:6 *297:126 4.88637e-05
15 *1125:CLK *983:A 4.1331e-06
16 *39:51 *983:A 9.0143e-05
17 *46:55 *984:A1 0.000397784
*RES
1 *979:Q *61:6 15.9964 
2 *61:6 *984:A1 15.4607 
3 *61:6 *983:A 26.6571 
*END

*D_NET *62 0.000647892
*CONN
*I *979:D I *D sky130_fd_sc_hd__dfrtp_1
*I *976:Y O *D sky130_fd_sc_hd__xnor2_1
*CAP
1 *979:D 0.000204869
2 *976:Y 0.000204869
3 *979:D *276:16 0
4 *979:D *277:10 7.83587e-05
5 *984:A1 *979:D 0.000159796
*RES
1 *976:Y *979:D 30.7295 
*END

*D_NET *63 0.0018364
*CONN
*I *982:A I *D sky130_fd_sc_hd__nand2_1
*I *984:B1_N I *D sky130_fd_sc_hd__a21bo_1
*I *980:Y O *D sky130_fd_sc_hd__nand3_1
*CAP
1 *982:A 0
2 *984:B1_N 0.000303162
3 *980:Y 0.000194569
4 *63:10 0.000497731
5 *984:B1_N *985:RESET_B 0.000273269
6 *984:B1_N *277:10 0.000181378
7 *63:10 *980:C 2.27416e-05
8 *63:10 *983:B 7.83587e-05
9 *63:10 *68:10 1.11474e-05
10 *63:10 *277:10 5.84075e-05
11 *983:A *984:B1_N 0.000181378
12 *983:A *63:10 3.42573e-05
*RES
1 *980:Y *63:10 17.2107 
2 *63:10 *984:B1_N 20.7643 
3 *63:10 *982:A 13.8 
*END

*D_NET *64 0.0020909
*CONN
*I *982:B I *D sky130_fd_sc_hd__nand2_1
*I *984:A2 I *D sky130_fd_sc_hd__a21bo_1
*I *981:X O *D sky130_fd_sc_hd__a21o_1
*CAP
1 *982:B 0.00032229
2 *984:A2 0.00018348
3 *981:X 0.000179212
4 *64:10 0.000684981
5 *982:B *66:12 8.71847e-05
6 *984:A2 *985:RESET_B 0.000184645
7 *984:A2 *276:16 0.000204011
8 *984:A2 *298:667 0
9 *64:10 *980:B 0.000139913
10 *64:10 *985:RESET_B 2.58997e-05
11 *64:10 *276:16 7.92879e-05
12 *64:10 *298:667 0
*RES
1 *981:X *64:10 17.1036 
2 *64:10 *984:A2 19.3179 
3 *64:10 *982:B 19.2821 
*END

*D_NET *65 0.000338362
*CONN
*I *983:B I *D sky130_fd_sc_hd__xnor2_1
*I *982:Y O *D sky130_fd_sc_hd__nand2_1
*CAP
1 *983:B 5.13303e-05
2 *982:Y 5.13303e-05
3 *983:B *277:10 2.91887e-05
4 *983:B *278:10 0
5 *983:A *983:B 0.000128154
6 *63:10 *983:B 7.83587e-05
*RES
1 *982:Y *983:B 29.5464 
*END

*D_NET *66 0.000985225
*CONN
*I *980:A I *D sky130_fd_sc_hd__nand3_1
*I *981:B1 I *D sky130_fd_sc_hd__a21o_1
*I *985:Q O *D sky130_fd_sc_hd__dfrtp_1
*CAP
1 *980:A 0
2 *981:B1 2.94296e-05
3 *985:Q 0.00024921
4 *66:12 0.00027864
5 *981:B1 *980:B 0.000139907
6 *981:B1 *980:C 0.000139907
7 *66:12 *276:16 6.09476e-05
8 *66:12 *277:10 0
9 *982:B *66:12 8.71847e-05
*RES
1 *985:Q *66:12 22.1214 
2 *66:12 *981:B1 10.6571 
3 *66:12 *980:A 9.3 
*END

*D_NET *67 0.000876024
*CONN
*I *985:D I *D sky130_fd_sc_hd__dfrtp_1
*I *984:X O *D sky130_fd_sc_hd__a21bo_1
*CAP
1 *985:D 0.000241024
2 *984:X 0.000241024
3 *985:D *985:RESET_B 0.000320031
4 *985:D *297:165 7.39458e-05
5 *985:D *298:667 0
*RES
1 *984:X *985:D 33.4393 
*END

*D_NET *68 0.0036638
*CONN
*I *991:A1 I *D sky130_fd_sc_hd__a21bo_1
*I *990:A I *D sky130_fd_sc_hd__xnor2_1
*I *986:Q O *D sky130_fd_sc_hd__dfrtp_1
*CAP
1 *991:A1 0.000224616
2 *990:A 0
3 *986:Q 0.00113684
4 *68:10 0.00136145
5 *991:A1 *989:B 0.000126582
6 *991:A1 *991:A2 2.89114e-05
7 *991:A1 *992:D 6.75007e-05
8 *991:A1 *70:8 0
9 *68:10 *980:C 0.000218246
10 *68:10 *986:D 0.000185643
11 *68:10 *989:B 3.69865e-05
12 *68:10 *990:B 0.000129868
13 *68:10 *82:12 0
14 *68:10 *275:16 0
15 *68:10 *298:701 0.000104611
16 *983:A *68:10 3.14048e-05
17 *992:CLK *991:A1 0
18 *992:CLK *68:10 0
19 *63:10 *68:10 1.11474e-05
*RES
1 *986:Q *68:10 31.4071 
2 *68:10 *990:A 13.8 
3 *68:10 *991:A1 19.1393 
*END

*D_NET *69 0.00153678
*CONN
*I *986:D I *D sky130_fd_sc_hd__dfrtp_1
*I *983:Y O *D sky130_fd_sc_hd__xnor2_1
*CAP
1 *986:D 0.000574009
2 *983:Y 0.000574009
3 *47:83 *986:D 0.000203121
4 *68:10 *986:D 0.000185643
*RES
1 *983:Y *986:D 27.5464 
*END

*D_NET *70 0.00165198
*CONN
*I *991:B1_N I *D sky130_fd_sc_hd__a21bo_1
*I *989:A I *D sky130_fd_sc_hd__nand2_1
*I *987:Y O *D sky130_fd_sc_hd__nand3_1
*CAP
1 *991:B1_N 0
2 *989:A 0.000275749
3 *987:Y 0.000183645
4 *70:8 0.000459395
5 *989:A *989:B 0.000314922
6 *989:A *73:12 4.48206e-05
7 *989:A *275:16 0.000103084
8 *70:8 *71:6 2.89114e-05
9 *70:8 *298:102 0.00019764
10 *70:8 *298:113 4.38128e-05
11 *991:A1 *70:8 0
*RES
1 *987:Y *70:8 12.7286 
2 *70:8 *989:A 25.7107 
3 *70:8 *991:B1_N 9.3 
*END

*D_NET *71 0.00152996
*CONN
*I *989:B I *D sky130_fd_sc_hd__nand2_1
*I *991:A2 I *D sky130_fd_sc_hd__a21bo_1
*I *988:X O *D sky130_fd_sc_hd__a21o_1
*CAP
1 *989:B 0.000234062
2 *991:A2 4.47446e-05
3 *988:X 4.14199e-05
4 *71:6 0.000320227
5 *989:B *990:B 6.74911e-05
6 *989:B *73:12 0
7 *991:A2 *298:102 0.00014285
8 *71:6 *298:102 0.000142856
9 *989:A *989:B 0.000314922
10 *991:A1 *989:B 0.000126582
11 *991:A1 *991:A2 2.89114e-05
12 *68:10 *989:B 3.69865e-05
13 *70:8 *71:6 2.89114e-05
*RES
1 *988:X *71:6 10.6571 
2 *71:6 *991:A2 10.6571 
3 *71:6 *989:B 26.0143 
*END

*D_NET *72 0.000558086
*CONN
*I *990:B I *D sky130_fd_sc_hd__xnor2_1
*I *989:Y O *D sky130_fd_sc_hd__nand2_1
*CAP
1 *990:B 0.000142267
2 *989:Y 0.000142267
3 *990:B *297:697 7.61932e-05
4 *989:B *990:B 6.74911e-05
5 *68:10 *990:B 0.000129868
*RES
1 *989:Y *990:B 30.6 
*END

*D_NET *73 0.000929676
*CONN
*I *987:A I *D sky130_fd_sc_hd__nand3_1
*I *988:B1 I *D sky130_fd_sc_hd__a21o_1
*I *992:Q O *D sky130_fd_sc_hd__dfrtp_1
*CAP
1 *987:A 6.73855e-05
2 *988:B1 0
3 *992:Q 0.000115537
4 *73:12 0.000182923
5 *987:A *987:B 9.70295e-05
6 *987:A *988:A2 1.44193e-05
7 *987:A *273:12 9.60875e-05
8 *987:A *298:102 0.000104416
9 *987:A *298:113 4.15725e-05
10 *73:12 *992:RESET_B 1.72894e-05
11 *73:12 *275:16 0.000148196
12 *989:A *73:12 4.48206e-05
13 *989:B *73:12 0
*RES
1 *992:Q *73:12 20.7821 
2 *73:12 *988:B1 9.3 
3 *73:12 *987:A 11.925 
*END

*D_NET *74 0.000583983
*CONN
*I *992:D I *D sky130_fd_sc_hd__dfrtp_1
*I *991:X O *D sky130_fd_sc_hd__a21bo_1
*CAP
1 *992:D 0.000255216
2 *991:X 0.000255216
3 *991:A1 *992:D 6.75007e-05
4 *992:CLK *992:D 6.05161e-06
*RES
1 *991:X *992:D 32.2429 
*END

*D_NET *75 0.00238708
*CONN
*I *998:A1 I *D sky130_fd_sc_hd__a21bo_1
*I *997:A I *D sky130_fd_sc_hd__xnor2_1
*I *993:Q O *D sky130_fd_sc_hd__dfrtp_1
*CAP
1 *998:A1 4.40703e-05
2 *997:A 5.70639e-05
3 *993:Q 0.000903244
4 *75:8 0.00100438
5 *997:A *997:B 7.43578e-06
6 *998:A1 *304:10 0.000153054
7 *998:A1 *305:10 8.39e-05
8 *75:8 *993:D 1.92789e-05
9 *75:8 *997:B 0.000114655
*RES
1 *993:Q *75:8 22.9964 
2 *75:8 *997:A 10.2643 
3 *75:8 *998:A1 20.2464 
*END

*D_NET *76 0.00102234
*CONN
*I *993:D I *D sky130_fd_sc_hd__dfrtp_1
*I *990:Y O *D sky130_fd_sc_hd__xnor2_1
*CAP
1 *993:D 0.000439726
2 *990:Y 0.000439726
3 *993:D *993:RESET_B 0.000123613
4 *75:8 *993:D 1.92789e-05
*RES
1 *990:Y *993:D 26.2607 
*END

*D_NET *77 0.00103851
*CONN
*I *996:A I *D sky130_fd_sc_hd__nand2_1
*I *998:B1_N I *D sky130_fd_sc_hd__a21bo_1
*I *994:Y O *D sky130_fd_sc_hd__nand3_1
*CAP
1 *996:A 0
2 *998:B1_N 2.52229e-05
3 *994:Y 0.000258615
4 *77:12 0.000283837
5 *998:B1_N *998:A2 5.52238e-05
6 *77:12 *994:A 4.38128e-05
7 *77:12 *995:A1 9.90431e-05
8 *77:12 *78:10 7.83366e-05
9 *77:12 *80:6 0.00014183
10 *77:12 *298:72 3.15318e-05
11 *77:12 *298:87 1.32552e-05
12 *77:12 *304:10 0
13 *77:12 *306:14 7.79781e-06
*RES
1 *994:Y *77:12 23.9607 
2 *77:12 *998:B1_N 9.83571 
3 *77:12 *996:A 9.3 
*END

*D_NET *78 0.000881798
*CONN
*I *998:A2 I *D sky130_fd_sc_hd__a21bo_1
*I *996:B I *D sky130_fd_sc_hd__nand2_1
*I *995:X O *D sky130_fd_sc_hd__a21o_1
*CAP
1 *998:A2 0.000236782
2 *996:B 0
3 *995:X 6.1167e-05
4 *78:10 0.000297949
5 *78:10 *306:14 0.00015234
6 *998:B1_N *998:A2 5.52238e-05
7 *77:12 *78:10 7.83366e-05
*RES
1 *995:X *78:10 20.2464 
2 *78:10 *996:B 9.3 
3 *78:10 *998:A2 13.1393 
*END

*D_NET *79 0.000585964
*CONN
*I *997:B I *D sky130_fd_sc_hd__xnor2_1
*I *996:Y O *D sky130_fd_sc_hd__nand2_1
*CAP
1 *997:B 0.000178956
2 *996:Y 0.000178956
3 *997:B *1000:D 5.33334e-05
4 *997:B *304:10 0
5 *997:B *306:14 5.26277e-05
6 *997:A *997:B 7.43578e-06
7 *75:8 *997:B 0.000114655
*RES
1 *996:Y *997:B 31.725 
*END

*D_NET *80 0.00097544
*CONN
*I *994:A I *D sky130_fd_sc_hd__nand3_1
*I *995:B1 I *D sky130_fd_sc_hd__a21o_1
*I *999:Q O *D sky130_fd_sc_hd__dfrtp_1
*CAP
1 *994:A 0.000205772
2 *995:B1 2.20052e-05
3 *999:Q 3.25329e-05
4 *80:6 0.00026031
5 *994:A *995:A1 7.82404e-05
6 *994:A *298:72 1.92789e-05
7 *994:A *306:14 4.89311e-05
8 *994:A *307:10 6.95556e-05
9 *995:B1 *995:A1 0
10 *995:B1 *995:A2 8.56315e-07
11 *80:6 *298:72 5.23142e-05
12 *77:12 *994:A 4.38128e-05
13 *77:12 *80:6 0.00014183
*RES
1 *999:Q *80:6 10.6571 
2 *80:6 *995:B1 9.72857 
3 *80:6 *994:A 22.2643 
*END

*D_NET *81 0.00073128
*CONN
*I *999:D I *D sky130_fd_sc_hd__dfrtp_1
*I *998:X O *D sky130_fd_sc_hd__a21bo_1
*CAP
1 *999:D 0.000318775
2 *998:X 0.000318775
3 *999:D *303:8 4.57445e-05
4 *999:CLK *999:D 4.79842e-05
*RES
1 *998:X *999:D 32.2429 
*END

*D_NET *82 0.00163753
*CONN
*I *1004:A I *D sky130_fd_sc_hd__xnor2_1
*I *1005:A1 I *D sky130_fd_sc_hd__a21bo_1
*I *1000:Q O *D sky130_fd_sc_hd__dfrtp_1
*CAP
1 *1004:A 0
2 *1005:A1 0.000138698
3 *1000:Q 0.000308568
4 *82:12 0.000447266
5 *1005:A1 *1007:D 3.67257e-05
6 *1005:A1 *297:165 0.000314697
7 *82:12 *298:667 0
8 *985:CLK *1005:A1 5.52238e-05
9 *985:CLK *82:12 5.33005e-05
10 *992:CLK *82:12 0.000257146
11 *46:79 *82:12 2.59004e-05
12 *68:10 *82:12 0
*RES
1 *1000:Q *82:12 25.3357 
2 *82:12 *1005:A1 13.1214 
3 *82:12 *1004:A 9.3 
*END

*D_NET *83 0.000392583
*CONN
*I *1000:D I *D sky130_fd_sc_hd__dfrtp_1
*I *997:Y O *D sky130_fd_sc_hd__xnor2_1
*CAP
1 *1000:D 0.000146748
2 *997:Y 0.000146748
3 *1000:D *304:10 4.57538e-05
4 *1000:D *306:14 0
5 *997:B *1000:D 5.33334e-05
*RES
1 *997:Y *1000:D 30.1893 
*END

*D_NET *84 0.000911681
*CONN
*I *1005:B1_N I *D sky130_fd_sc_hd__a21bo_1
*I *1003:A I *D sky130_fd_sc_hd__nand2_1
*I *1001:Y O *D sky130_fd_sc_hd__nand3_1
*CAP
1 *1005:B1_N 3.92213e-05
2 *1003:A 0.000200422
3 *1001:Y 6.26725e-05
4 *84:8 0.000302316
5 *1003:A *1003:B 0
6 *1003:A *1004:B 3.67142e-05
7 *1003:A *1007:D 0.000150625
8 *1003:A *85:10 0
9 *1005:B1_N *297:165 5.52302e-05
10 *84:8 *1002:A1 9.25014e-06
11 *84:8 *85:10 0
12 *992:CLK *84:8 0
13 *39:40 *1003:A 5.52302e-05
14 *46:79 *1003:A 0
*RES
1 *1001:Y *84:8 14.8357 
2 *84:8 *1003:A 18.2107 
3 *84:8 *1005:B1_N 14.3357 
*END

*D_NET *85 0.000764881
*CONN
*I *1005:A2 I *D sky130_fd_sc_hd__a21bo_1
*I *1003:B I *D sky130_fd_sc_hd__nand2_1
*I *1002:X O *D sky130_fd_sc_hd__a21o_1
*CAP
1 *1005:A2 0
2 *1003:B 0.000111982
3 *1002:X 0.000153172
4 *85:10 0.000265154
5 *1003:B *306:14 0.000122951
6 *85:10 *1002:A1 2.8266e-06
7 *85:10 *87:12 5.03772e-05
8 *85:10 *306:14 5.84171e-05
9 *1003:A *1003:B 0
10 *1003:A *85:10 0
11 *84:8 *85:10 0
*RES
1 *1002:X *85:10 16.3893 
2 *85:10 *1003:B 16.6571 
3 *85:10 *1005:A2 13.8 
*END

*D_NET *86 0.000894501
*CONN
*I *1004:B I *D sky130_fd_sc_hd__xnor2_1
*I *1003:Y O *D sky130_fd_sc_hd__nand2_1
*CAP
1 *1004:B 0.000334172
2 *1003:Y 0.000334172
3 *1003:A *1004:B 3.67142e-05
4 *39:40 *1004:B 6.12902e-05
5 *46:79 *1004:B 0.000128154
*RES
1 *1003:Y *1004:B 32.6536 
*END

*D_NET *87 0.00115708
*CONN
*I *1001:A I *D sky130_fd_sc_hd__nand3_1
*I *1002:B1 I *D sky130_fd_sc_hd__a21o_1
*I *1006:Q O *D sky130_fd_sc_hd__dfrtp_1
*CAP
1 *1001:A 0.000218498
2 *1002:B1 0
3 *1006:Q 0.00014996
4 *87:12 0.000368457
5 *1001:A *1001:B 9.58941e-06
6 *1001:A *1002:A2 0.000176154
7 *1001:A *306:14 0
8 *1001:A *307:10 5.58941e-05
9 *87:12 *304:10 0
10 *87:12 *306:14 0.000128154
11 *85:10 *87:12 5.03772e-05
*RES
1 *1006:Q *87:12 21.3 
2 *87:12 *1002:B1 9.3 
3 *87:12 *1001:A 22.3625 
*END

*D_NET *88 0.00100426
*CONN
*I *1006:D I *D sky130_fd_sc_hd__dfrtp_1
*I *1005:X O *D sky130_fd_sc_hd__a21bo_1
*CAP
1 *1006:D 0.000344438
2 *1005:X 0.000344438
3 *1006:D *1006:RESET_B 2.0714e-05
4 *1006:D *297:165 0.000221433
5 *1006:D *297:171 7.3237e-05
*RES
1 *1005:X *1006:D 25.7071 
*END

*D_NET *89 0.00349499
*CONN
*I *1012:A1 I *D sky130_fd_sc_hd__a21bo_1
*I *1011:A I *D sky130_fd_sc_hd__xnor2_1
*I *1007:Q O *D sky130_fd_sc_hd__dfrtp_1
*CAP
1 *1012:A1 0
2 *1011:A 0.000388881
3 *1007:Q 0.000893223
4 *89:10 0.0012821
5 *1011:A *1008:A 0
6 *1011:A *1010:B 5.26184e-05
7 *1011:A *1011:B 0.00014285
8 *1011:A *1014:D 7.43578e-06
9 *1011:A *1188:RESET_B 0
10 *1011:A *94:10 0
11 *89:10 *1007:RESET_B 0.000134714
12 *89:10 *1013:D 4.57445e-05
13 *89:10 *94:10 0
14 *89:10 *306:14 0
15 *1188:CLK *1011:A 5.80706e-06
16 *1188:CLK *89:10 0.000212841
17 *39:10 *89:10 0.000165021
18 *46:22 *89:10 0.000163755
*RES
1 *1007:Q *89:10 29.8357 
2 *89:10 *1011:A 20.8536 
3 *89:10 *1012:A1 13.8 
*END

*D_NET *90 0.00107281
*CONN
*I *1007:D I *D sky130_fd_sc_hd__dfrtp_1
*I *1004:Y O *D sky130_fd_sc_hd__xnor2_1
*CAP
1 *1007:D 0.000346114
2 *1004:Y 0.000346114
3 *1007:D *306:14 0
4 *1003:A *1007:D 0.000150625
5 *1005:A1 *1007:D 3.67257e-05
6 *39:10 *1007:D 0.0001098
7 *39:40 *1007:D 7.92975e-05
8 *46:12 *1007:D 0
9 *46:18 *1007:D 0
10 *46:22 *1007:D 4.1331e-06
11 *46:79 *1007:D 0
*RES
1 *1004:Y *1007:D 35.0464 
*END

*D_NET *91 0.000631013
*CONN
*I *1012:B1_N I *D sky130_fd_sc_hd__a21bo_1
*I *1010:A I *D sky130_fd_sc_hd__nand2_1
*I *1008:Y O *D sky130_fd_sc_hd__nand3_1
*CAP
1 *1012:B1_N 4.65315e-05
2 *1010:A 4.78369e-05
3 *1008:Y 0.000100039
4 *91:8 0.000194407
5 *1010:A *1010:B 5.83233e-05
6 *1010:A *298:641 5.71472e-05
7 *1010:A *298:645 0
8 *1012:B1_N *1010:B 6.91157e-05
9 *1012:B1_N *298:645 0
10 *91:8 *298:632 2.27416e-05
11 *91:8 *298:641 3.48705e-05
*RES
1 *1008:Y *91:8 15.1571 
2 *91:8 *1010:A 15.0679 
3 *91:8 *1012:B1_N 14.8357 
*END

*D_NET *92 0.000779212
*CONN
*I *1012:A2 I *D sky130_fd_sc_hd__a21bo_1
*I *1010:B I *D sky130_fd_sc_hd__nand2_1
*I *1009:X O *D sky130_fd_sc_hd__a21o_1
*CAP
1 *1012:A2 0
2 *1010:B 0.000206077
3 *1009:X 7.68188e-05
4 *92:6 0.000282895
5 *1010:B *1188:RESET_B 4.46186e-06
6 *1010:B *298:645 0
7 *1010:A *1010:B 5.83233e-05
8 *1011:A *1010:B 5.26184e-05
9 *1012:B1_N *1010:B 6.91157e-05
10 *1188:CLK *1010:B 2.89016e-05
*RES
1 *1009:X *92:6 10.6571 
2 *92:6 *1010:B 22.4429 
3 *92:6 *1012:A2 9.3 
*END

*D_NET *93 0.000665142
*CONN
*I *1011:B I *D sky130_fd_sc_hd__xnor2_1
*I *1010:Y O *D sky130_fd_sc_hd__nand2_1
*CAP
1 *1011:B 0.000226276
2 *1010:Y 0.000226276
3 *1011:B *1014:D 6.97409e-05
4 *1011:A *1011:B 0.00014285
*RES
1 *1010:Y *1011:B 32.2429 
*END

*D_NET *94 0.0015786
*CONN
*I *1009:B1 I *D sky130_fd_sc_hd__a21o_1
*I *1008:A I *D sky130_fd_sc_hd__nand3_1
*I *1013:Q O *D sky130_fd_sc_hd__dfrtp_1
*CAP
1 *1009:B1 0
2 *1008:A 0.000130635
3 *1013:Q 0.000259538
4 *94:10 0.000390173
5 *1008:A *1008:B 0.000312085
6 *1008:A *1009:A2 0
7 *1008:A *298:632 0.000232399
8 *1008:A *306:14 5.80706e-06
9 *94:10 *1013:D 0.000172183
10 *94:10 *306:14 7.57773e-05
11 *1011:A *1008:A 0
12 *1011:A *94:10 0
13 *89:10 *94:10 0
*RES
1 *1013:Q *94:10 18.3357 
2 *94:10 *1008:A 18.2286 
3 *94:10 *1009:B1 13.8 
*END

*D_NET *95 0.00162891
*CONN
*I *1013:D I *D sky130_fd_sc_hd__dfrtp_1
*I *1012:X O *D sky130_fd_sc_hd__a21bo_1
*CAP
1 *1013:D 0.000599168
2 *1012:X 0.000599168
3 *1013:D *1063:D 0.000102197
4 *1013:D *306:14 0
5 *1013:CLK *1013:D 5.62995e-05
6 *39:10 *1013:D 5.41494e-05
7 *89:10 *1013:D 4.57445e-05
8 *94:10 *1013:D 0.000172183
*RES
1 *1012:X *1013:D 39.6357 
*END

*D_NET *96 0.0010446
*CONN
*I *1018:A I *D sky130_fd_sc_hd__xnor2_1
*I *1019:A1 I *D sky130_fd_sc_hd__a21bo_1
*I *1014:Q O *D sky130_fd_sc_hd__dfrtp_1
*CAP
1 *1018:A 0
2 *1019:A1 0.000175555
3 *1014:Q 0.000298781
4 *96:12 0.000474336
5 *1019:A1 *1016:B1 3.69047e-06
6 *1019:A1 *1019:B1_N 5.62995e-05
7 *96:12 *1018:B 3.34295e-05
8 *96:12 *297:474 2.51343e-06
9 *96:12 *304:10 0
*RES
1 *1014:Q *96:12 22.425 
2 *96:12 *1019:A1 12.3 
3 *96:12 *1018:A 9.3 
*END

*D_NET *97 0.0014342
*CONN
*I *1014:D I *D sky130_fd_sc_hd__dfrtp_1
*I *1011:Y O *D sky130_fd_sc_hd__xnor2_1
*CAP
1 *1014:D 0.000644484
2 *1011:Y 0.000644484
3 *1014:D *1021:D 0
4 *1011:A *1014:D 7.43578e-06
5 *1011:B *1014:D 6.97409e-05
6 *1182:CLK *1014:D 6.80593e-05
*RES
1 *1011:Y *1014:D 37.1357 
*END

*D_NET *98 0.000818068
*CONN
*I *1017:A I *D sky130_fd_sc_hd__nand2_1
*I *1019:B1_N I *D sky130_fd_sc_hd__a21bo_1
*I *1015:Y O *D sky130_fd_sc_hd__nand3_1
*CAP
1 *1017:A 6.60309e-05
2 *1019:B1_N 0.000121993
3 *1015:Y 0.000111615
4 *98:6 0.000299639
5 *1017:A *1018:B 7.43578e-06
6 *1019:B1_N *304:10 7.83587e-05
7 *98:6 *1015:C 5.52302e-05
8 *98:6 *1017:B 2.14658e-05
9 *1019:A1 *1019:B1_N 5.62995e-05
*RES
1 *1015:Y *98:6 10.6571 
2 *98:6 *1019:B1_N 20.2821 
3 *98:6 *1017:A 10.5679 
*END

*D_NET *99 0.00117618
*CONN
*I *1017:B I *D sky130_fd_sc_hd__nand2_1
*I *1019:A2 I *D sky130_fd_sc_hd__a21bo_1
*I *1016:X O *D sky130_fd_sc_hd__a21o_1
*CAP
1 *1017:B 0.000109819
2 *1019:A2 0
3 *1016:X 0.000152156
4 *99:10 0.000261975
5 *1017:B *1015:C 5.52302e-05
6 *1017:B *1016:A1 0.000191877
7 *1017:B *304:10 0.000103256
8 *1017:B *305:10 1.02504e-05
9 *99:10 *1016:A1 0.000127439
10 *99:10 *1016:B1 7.6644e-05
11 *99:10 *297:474 3.88139e-05
12 *99:10 *304:10 2.72545e-05
13 *98:6 *1017:B 2.14658e-05
*RES
1 *1016:X *99:10 16.8 
2 *99:10 *1019:A2 13.8 
3 *99:10 *1017:B 17.3 
*END

*D_NET *100 0.000504521
*CONN
*I *1018:B I *D sky130_fd_sc_hd__xnor2_1
*I *1017:Y O *D sky130_fd_sc_hd__nand2_1
*CAP
1 *1018:B 0.000231828
2 *1017:Y 0.000231828
3 *1018:B *304:10 0
4 *1017:A *1018:B 7.43578e-06
5 *96:12 *1018:B 3.34295e-05
*RES
1 *1017:Y *1018:B 30.9036 
*END

*D_NET *101 0.00139394
*CONN
*I *1016:B1 I *D sky130_fd_sc_hd__a21o_1
*I *1015:A I *D sky130_fd_sc_hd__nand3_1
*I *1020:Q O *D sky130_fd_sc_hd__dfrtp_1
*CAP
1 *1016:B1 0.000176124
2 *1015:A 6.87226e-05
3 *1020:Q 4.70928e-05
4 *101:6 0.000291939
5 *1015:A *1016:A1 0.000247786
6 *1015:A *298:600 0.000223599
7 *1015:A *298:615 3.34366e-05
8 *1016:B1 *1016:A1 4.23086e-05
9 *1016:B1 *1020:D 6.05161e-06
10 *1016:B1 *304:10 0.000150611
11 *101:6 *1020:D 2.59355e-05
12 *1019:A1 *1016:B1 3.69047e-06
13 *99:10 *1016:B1 7.6644e-05
*RES
1 *1020:Q *101:6 9.83571 
2 *101:6 *1015:A 21.4607 
3 *101:6 *1016:B1 21.6036 
*END

*D_NET *102 0.00097369
*CONN
*I *1020:D I *D sky130_fd_sc_hd__dfrtp_1
*I *1019:X O *D sky130_fd_sc_hd__a21bo_1
*CAP
1 *1020:D 0.000470851
2 *1019:X 0.000470851
3 *1016:B1 *1020:D 6.05161e-06
4 *101:6 *1020:D 2.59355e-05
*RES
1 *1019:X *1020:D 25.7071 
*END

*D_NET *103 0.00179976
*CONN
*I *1025:A I *D sky130_fd_sc_hd__xnor2_1
*I *1026:A1 I *D sky130_fd_sc_hd__a21bo_1
*I *1021:Q O *D sky130_fd_sc_hd__dfrtp_1
*CAP
1 *1025:A 0.000378316
2 *1026:A1 9.67501e-05
3 *1021:Q 0.0001559
4 *103:10 0.000630967
5 *1025:A *108:8 2.89114e-05
6 *1025:A *297:450 0.000189266
7 *1026:A1 *1023:A1 0.000128154
8 *1026:A1 *1027:D 0
9 *1026:A1 *105:12 0
10 *1026:A1 *303:8 0
11 *1026:A1 *303:14 0
12 *103:10 *1022:A 2.77258e-05
13 *103:10 *1022:B 1.24368e-05
14 *103:10 *1023:A1 0.000151333
15 *103:10 *303:8 0
*RES
1 *1021:Q *103:10 16.6929 
2 *103:10 *1026:A1 16.05 
3 *103:10 *1025:A 20.6393 
*END

*D_NET *104 0.00122025
*CONN
*I *1021:D I *D sky130_fd_sc_hd__dfrtp_1
*I *1018:Y O *D sky130_fd_sc_hd__xnor2_1
*CAP
1 *1021:D 0.000610125
2 *1018:Y 0.000610125
3 *1014:D *1021:D 0
4 *44:74 *1021:D 0
*RES
1 *1018:Y *1021:D 37.8143 
*END

*D_NET *105 0.00177882
*CONN
*I *1024:A I *D sky130_fd_sc_hd__nand2_1
*I *1026:B1_N I *D sky130_fd_sc_hd__a21bo_1
*I *1022:Y O *D sky130_fd_sc_hd__nand3_1
*CAP
1 *1024:A 0.000186385
2 *1026:B1_N 0
3 *1022:Y 0.000315135
4 *105:12 0.000501521
5 *1024:A *1023:A1 2.59355e-05
6 *1024:A *1023:A2 5.52238e-05
7 *1024:A *1024:B 3.76337e-05
8 *1024:A *1025:B 2.89016e-05
9 *1024:A *1026:A2 0.000120587
10 *1024:A *1175:RESET_B 3.69047e-06
11 *105:12 *1022:A 0.000227532
12 *105:12 *1023:A1 0.000164969
13 *105:12 *1023:B1 0
14 *105:12 *297:450 3.10821e-05
15 *105:12 *297:461 5.75953e-05
16 *105:12 *297:474 2.26327e-05
17 *105:12 *304:10 0
18 *1026:A1 *105:12 0
*RES
1 *1022:Y *105:12 25.7643 
2 *105:12 *1026:B1_N 9.3 
3 *105:12 *1024:A 13.55 
*END

*D_NET *106 0.000973258
*CONN
*I *1024:B I *D sky130_fd_sc_hd__nand2_1
*I *1026:A2 I *D sky130_fd_sc_hd__a21bo_1
*I *1023:X O *D sky130_fd_sc_hd__a21o_1
*CAP
1 *1024:B 4.05517e-05
2 *1026:A2 0.000246979
3 *1023:X 0
4 *106:4 0.000287531
5 *1026:A2 *1023:A1 5.52302e-05
6 *1026:A2 *1023:A2 0.000184745
7 *1024:A *1024:B 3.76337e-05
8 *1024:A *1026:A2 0.000120587
*RES
1 *1023:X *106:4 9.3 
2 *106:4 *1026:A2 14.3714 
3 *106:4 *1024:B 10.2643 
*END

*D_NET *107 0.00044528
*CONN
*I *1025:B I *D sky130_fd_sc_hd__xnor2_1
*I *1024:Y O *D sky130_fd_sc_hd__nand2_1
*CAP
1 *1025:B 0.000150629
2 *1024:Y 0.000150629
3 *1025:B *1023:B1 9.11365e-06
4 *1025:B *1028:D 0
5 *1025:B *1175:RESET_B 4.46231e-06
6 *1025:B *297:450 0.000101545
7 *1024:A *1025:B 2.89016e-05
8 *44:10 *1025:B 0
*RES
1 *1024:Y *1025:B 30.1893 
*END

*D_NET *108 0.00182673
*CONN
*I *1022:A I *D sky130_fd_sc_hd__nand3_1
*I *1023:B1 I *D sky130_fd_sc_hd__a21o_1
*I *1027:Q O *D sky130_fd_sc_hd__dfrtp_1
*CAP
1 *1022:A 0.000389728
2 *1023:B1 0.000270992
3 *1027:Q 4.16506e-05
4 *108:8 0.000702371
5 *1022:A *1022:B 4.22908e-05
6 *1022:A *297:461 0
7 *1022:A *297:474 0
8 *1023:B1 *1023:A1 1.85096e-05
9 *1023:B1 *297:450 6.79059e-05
10 *1023:B1 *297:461 0
11 *1025:A *108:8 2.89114e-05
12 *1025:B *1023:B1 9.11365e-06
13 *103:10 *1022:A 2.77258e-05
14 *105:12 *1022:A 0.000227532
15 *105:12 *1023:B1 0
*RES
1 *1027:Q *108:8 14.3357 
2 *108:8 *1023:B1 18.7464 
3 *108:8 *1022:A 21.2286 
*END

*D_NET *109 0.000285872
*CONN
*I *1027:D I *D sky130_fd_sc_hd__dfrtp_1
*I *1026:X O *D sky130_fd_sc_hd__a21bo_1
*CAP
1 *1027:D 0.000142936
2 *1026:X 0.000142936
3 *1027:D *303:8 0
4 *1026:A1 *1027:D 0
*RES
1 *1026:X *1027:D 29.7786 
*END

*D_NET *110 0.00129061
*CONN
*I *1032:A I *D sky130_fd_sc_hd__xnor2_1
*I *1033:A1 I *D sky130_fd_sc_hd__a21bo_1
*I *1028:Q O *D sky130_fd_sc_hd__dfrtp_1
*CAP
1 *1032:A 0
2 *1033:A1 0.000229287
3 *1028:Q 0.000192048
4 *110:12 0.000421335
5 *1033:A1 *1028:RESET_B 0
6 *1033:A1 *1029:B 0.000101545
7 *1033:A1 *1029:C 7.8327e-05
8 *1033:A1 *1032:B 0
9 *1033:A1 *112:10 0.000127446
10 *1033:A1 *113:12 0
11 *110:12 *1028:RESET_B 0
12 *110:12 *1029:C 2.94103e-05
13 *110:12 *1035:D 7.43578e-06
14 *110:12 *298:365 5.03772e-05
15 *110:12 *298:376 5.33978e-05
*RES
1 *1028:Q *110:12 22.0143 
2 *110:12 *1033:A1 22.9786 
3 *110:12 *1032:A 9.3 
*END

*D_NET *111 0.000509488
*CONN
*I *1028:D I *D sky130_fd_sc_hd__dfrtp_1
*I *1025:Y O *D sky130_fd_sc_hd__xnor2_1
*CAP
1 *1028:D 0.000196943
2 *1025:Y 0.000196943
3 *1028:D *297:400 0
4 *1028:D *297:450 0
5 *1025:B *1028:D 0
6 *44:10 *1028:D 6.39262e-05
7 *44:16 *1028:D 5.16759e-05
*RES
1 *1025:Y *1028:D 31.6714 
*END

*D_NET *112 0.000944788
*CONN
*I *1033:B1_N I *D sky130_fd_sc_hd__a21bo_1
*I *1031:A I *D sky130_fd_sc_hd__nand2_1
*I *1029:Y O *D sky130_fd_sc_hd__nand3_1
*CAP
1 *1033:B1_N 7.91466e-05
2 *1031:A 0.000179257
3 *1029:Y 8.04526e-05
4 *112:10 0.000338856
5 *1031:A *1032:B 5.52302e-05
6 *1031:A *1033:A2 8.43996e-05
7 *1033:A1 *112:10 0.000127446
*RES
1 *1029:Y *112:10 19.9429 
2 *112:10 *1031:A 13.05 
3 *112:10 *1033:B1_N 10.6571 
*END

*D_NET *113 0.00138638
*CONN
*I *1033:A2 I *D sky130_fd_sc_hd__a21bo_1
*I *1031:B I *D sky130_fd_sc_hd__nand2_1
*I *1030:X O *D sky130_fd_sc_hd__a21o_1
*CAP
1 *1033:A2 0.000101797
2 *1031:B 1.62498e-05
3 *1030:X 0.000288741
4 *113:12 0.000406788
5 *1031:B *1032:B 5.30637e-06
6 *1031:B *1034:D 2.44318e-05
7 *1033:A2 *1032:B 9.22103e-06
8 *1033:A2 *1034:D 0.000144773
9 *113:12 *1030:B1 3.92854e-05
10 *113:12 *1032:B 0.000265385
11 *113:12 *1035:RESET_B 0
12 *1031:A *1033:A2 8.43996e-05
13 *1033:A1 *113:12 0
*RES
1 *1030:X *113:12 23.2107 
2 *113:12 *1031:B 9.83571 
3 *113:12 *1033:A2 12.3357 
*END

*D_NET *114 0.00117459
*CONN
*I *1032:B I *D sky130_fd_sc_hd__xnor2_1
*I *1031:Y O *D sky130_fd_sc_hd__nand2_1
*CAP
1 *1032:B 0.000285704
2 *1031:Y 0.000285704
3 *1032:B *1029:B 0.000108276
4 *1032:B *1029:C 0
5 *1032:B *1030:B1 1.69115e-05
6 *1032:B *298:365 0.000142856
7 *1032:B *303:14 0
8 *1031:A *1032:B 5.52302e-05
9 *1031:B *1032:B 5.30637e-06
10 *1033:A1 *1032:B 0
11 *1033:A2 *1032:B 9.22103e-06
12 *113:12 *1032:B 0.000265385
*RES
1 *1031:Y *1032:B 34.2786 
*END

*D_NET *115 0.000835918
*CONN
*I *1029:A I *D sky130_fd_sc_hd__nand3_1
*I *1030:B1 I *D sky130_fd_sc_hd__a21o_1
*I *1034:Q O *D sky130_fd_sc_hd__dfrtp_1
*CAP
1 *1029:A 4.55065e-05
2 *1030:B1 0.000259268
3 *1034:Q 0
4 *115:4 0.000304775
5 *1029:A *1029:B 2.72053e-05
6 *1029:A *1035:RESET_B 5.71472e-05
7 *1030:B1 *1035:RESET_B 7.65689e-05
8 *1030:B1 *303:14 9.25014e-06
9 *1032:B *1030:B1 1.69115e-05
10 *113:12 *1030:B1 3.92854e-05
*RES
1 *1034:Q *115:4 9.3 
2 *115:4 *1030:B1 22.1214 
3 *115:4 *1029:A 10.5679 
*END

*D_NET *116 0.0015441
*CONN
*I *1034:D I *D sky130_fd_sc_hd__dfrtp_1
*I *1033:X O *D sky130_fd_sc_hd__a21bo_1
*CAP
1 *1034:D 0.00068745
2 *1033:X 0.00068745
3 *1034:D *1035:RESET_B 0
4 *1034:D *1037:A1 0
5 *1034:D *1038:A 0
6 *1034:D *1039:B 0
7 *1031:B *1034:D 2.44318e-05
8 *1033:A2 *1034:D 0.000144773
*RES
1 *1033:X *1034:D 37.0464 
*END

*D_NET *117 0.00333727
*CONN
*I *1040:A1 I *D sky130_fd_sc_hd__a21bo_1
*I *1039:A I *D sky130_fd_sc_hd__xnor2_1
*I *1035:Q O *D sky130_fd_sc_hd__dfrtp_1
*CAP
1 *1040:A1 2.04877e-05
2 *1039:A 0.000248946
3 *1035:Q 0.000906414
4 *117:14 0.00117585
5 *1039:A *1034:RESET_B 4.58194e-05
6 *1039:A *1036:A 4.66203e-05
7 *1039:A *1037:B1 3.67452e-05
8 *1039:A *1039:B 6.05161e-06
9 *1039:A *1040:A2 3.34366e-05
10 *1039:A *302:18 0
11 *117:14 *1034:RESET_B 0.000183873
12 *117:14 *1035:RESET_B 0.000633032
*RES
1 *1035:Q *117:14 23.675 
2 *117:14 *1039:A 22.7643 
3 *117:14 *1040:A1 9.72857 
*END

*D_NET *118 0.00133646
*CONN
*I *1035:D I *D sky130_fd_sc_hd__dfrtp_1
*I *1032:Y O *D sky130_fd_sc_hd__xnor2_1
*CAP
1 *1035:D 0.000664514
2 *1032:Y 0.000664514
3 *44:18 *1035:D 0
4 *110:12 *1035:D 7.43578e-06
*RES
1 *1032:Y *1035:D 35.6357 
*END

*D_NET *119 0.000997865
*CONN
*I *1040:B1_N I *D sky130_fd_sc_hd__a21bo_1
*I *1038:A I *D sky130_fd_sc_hd__nand2_1
*I *1036:Y O *D sky130_fd_sc_hd__nand3_1
*CAP
1 *1040:B1_N 0
2 *1038:A 0.000131886
3 *1036:Y 0.000105385
4 *119:10 0.000237271
5 *1038:A *1037:A1 6.8646e-06
6 *1038:A *1037:A2 0.000128233
7 *1038:A *1039:B 0.000199698
8 *119:10 *1037:A2 3.34687e-05
9 *119:10 *1039:B 7.83587e-05
10 *119:10 *298:354 5.52238e-05
11 *119:10 *302:18 2.14757e-05
12 *1034:D *1038:A 0
*RES
1 *1036:Y *119:10 15.7821 
2 *119:10 *1038:A 17.2643 
3 *119:10 *1040:B1_N 13.8 
*END

*D_NET *120 0.00092959
*CONN
*I *1038:B I *D sky130_fd_sc_hd__nand2_1
*I *1040:A2 I *D sky130_fd_sc_hd__a21bo_1
*I *1037:X O *D sky130_fd_sc_hd__a21o_1
*CAP
1 *1038:B 0.000137328
2 *1040:A2 0.000213549
3 *1037:X 0
4 *120:4 0.000350877
5 *1038:B *1037:A2 0
6 *1040:A2 *1037:A2 6.86693e-05
7 *1040:A2 *1037:B1 0.000125731
8 *1039:A *1040:A2 3.34366e-05
*RES
1 *1037:X *120:4 9.3 
2 *120:4 *1040:A2 21.7107 
3 *120:4 *1038:B 11.8179 
*END

*D_NET *121 0.00123824
*CONN
*I *1039:B I *D sky130_fd_sc_hd__xnor2_1
*I *1038:Y O *D sky130_fd_sc_hd__nand2_1
*CAP
1 *1039:B 0.000324099
2 *1038:Y 0.000324099
3 *1039:B *1035:RESET_B 0
4 *1039:B *1037:A2 4.98055e-06
5 *1039:B *298:326 1.02969e-05
6 *1039:B *298:345 9.87983e-06
7 *1039:B *302:18 0.00018077
8 *1034:CLK *1039:B 0.000100009
9 *1034:D *1039:B 0
10 *1038:A *1039:B 0.000199698
11 *1039:A *1039:B 6.05161e-06
12 *119:10 *1039:B 7.83587e-05
*RES
1 *1038:Y *1039:B 34.975 
*END

*D_NET *122 0.00156214
*CONN
*I *1036:A I *D sky130_fd_sc_hd__nand3_1
*I *1037:B1 I *D sky130_fd_sc_hd__a21o_1
*I *1041:Q O *D sky130_fd_sc_hd__dfrtp_1
*CAP
1 *1036:A 5.39687e-05
2 *1037:B1 0.000166395
3 *1041:Q 0.000160304
4 *122:8 0.000380667
5 *1036:A *1037:A1 0.00010326
6 *1036:A *1037:A2 7.05143e-06
7 *1036:A *298:326 7.05143e-06
8 *1037:B1 *1037:A1 0.000292572
9 *1037:B1 *1037:A2 5.33005e-05
10 *122:8 *1034:RESET_B 0.000128476
11 *1039:A *1036:A 4.66203e-05
12 *1039:A *1037:B1 3.67452e-05
13 *1040:A2 *1037:B1 0.000125731
*RES
1 *1041:Q *122:8 15.9786 
2 *122:8 *1037:B1 17.8 
3 *122:8 *1036:A 15.4429 
*END

*D_NET *123 0.00109721
*CONN
*I *1041:D I *D sky130_fd_sc_hd__dfrtp_1
*I *1040:X O *D sky130_fd_sc_hd__a21bo_1
*CAP
1 *1041:D 0.000315952
2 *1040:X 0.000315952
3 *1041:D *1034:RESET_B 0.000340606
4 *1041:D *1041:RESET_B 2.00632e-05
5 *1041:D *1140:D 6.05161e-06
6 *1041:D *297:357 9.85893e-05
*RES
1 *1040:X *1041:D 26.1179 
*END

*D_NET *124 0.00171202
*CONN
*I *1053:A I *D sky130_fd_sc_hd__xnor2_1
*I *1054:A1 I *D sky130_fd_sc_hd__a21bo_1
*I *1042:Q O *D sky130_fd_sc_hd__dfrtp_1
*CAP
1 *1053:A 0.000252083
2 *1054:A1 0
3 *1042:Q 0.000548123
4 *124:10 0.000800206
5 *1053:A *1053:B 0
6 *1053:A *136:12 0
7 *124:10 *1042:D 1.1979e-05
8 *124:10 *1055:D 9.96331e-05
9 *124:10 *136:12 0
10 *124:10 *298:326 0
11 *124:10 *298:547 0
12 *1133:CLK *124:10 0
13 *41:10 *124:10 0
14 *41:38 *124:10 0
15 *41:56 *1053:A 0
*RES
1 *1042:Q *124:10 23.675 
2 *124:10 *1054:A1 13.8 
3 *124:10 *1053:A 18.0143 
*END

*D_NET *125 0.00149368
*CONN
*I *1042:D I *D sky130_fd_sc_hd__dfrtp_1
*I *1039:Y O *D sky130_fd_sc_hd__xnor2_1
*CAP
1 *1042:D 0.000694906
2 *1039:Y 0.000694906
3 *40:31 *1042:D 7.35879e-05
4 *40:33 *1042:D 1.83053e-05
5 *124:10 *1042:D 1.1979e-05
*RES
1 *1039:Y *1042:D 26.9571 
*END

*D_NET *126 0.00105032
*CONN
*I *1047:B1_N I *D sky130_fd_sc_hd__a21bo_1
*I *1045:A I *D sky130_fd_sc_hd__nand2_1
*I *1043:Y O *D sky130_fd_sc_hd__nand3_1
*CAP
1 *1047:B1_N 0
2 *1045:A 0.000176011
3 *1043:Y 9.43509e-05
4 *126:6 0.000270362
5 *1045:A *285:14 0.00025263
6 *1045:A *298:148 4.80729e-05
7 *1045:A *298:154 0.000202842
8 *126:6 *1043:A 6.05161e-06
*RES
1 *1043:Y *126:6 10.2464 
2 *126:6 *1045:A 23.2464 
3 *126:6 *1047:B1_N 9.3 
*END

*D_NET *127 0.000913633
*CONN
*I *1047:A2 I *D sky130_fd_sc_hd__a21bo_1
*I *1045:B I *D sky130_fd_sc_hd__nand2_1
*I *1044:X O *D sky130_fd_sc_hd__a21o_1
*CAP
1 *1047:A2 0
2 *1045:B 0.000112874
3 *1044:X 0.000260604
4 *127:10 0.000373478
5 *1045:B *283:10 0
6 *1045:B *285:14 0
7 *127:10 *1044:B1 2.56601e-05
8 *127:10 *283:10 0
9 *127:10 *285:14 0
10 *127:10 *288:10 2.89114e-05
11 *1047:A1 *1045:B 0.000112106
*RES
1 *1044:X *127:10 18.4071 
2 *127:10 *1045:B 16.6571 
3 *127:10 *1047:A2 13.8 
*END

*D_NET *128 0.000296712
*CONN
*I *1046:B I *D sky130_fd_sc_hd__xnor2_1
*I *1045:Y O *D sky130_fd_sc_hd__nand2_1
*CAP
1 *1046:B 7.97237e-05
2 *1045:Y 7.97237e-05
3 *1046:B *283:10 0
4 *1046:B *285:14 9.10431e-06
5 *1047:A1 *1046:B 0.000128161
*RES
1 *1045:Y *1046:B 29.5464 
*END

*D_NET *129 0.0015426
*CONN
*I *1043:A I *D sky130_fd_sc_hd__nand3_1
*I *1044:B1 I *D sky130_fd_sc_hd__a21o_1
*I *1048:Q O *D sky130_fd_sc_hd__dfrtp_1
*CAP
1 *1043:A 0.000117171
2 *1044:B1 0.00024331
3 *1048:Q 5.07312e-05
4 *129:6 0.000411213
5 *1043:A *1043:B 2.89114e-05
6 *1043:A *284:10 0.000248486
7 *1043:A *298:148 0.000250193
8 *1043:A *298:154 1.02504e-05
9 *1044:B1 *283:10 0
10 *1044:B1 *285:14 0.000150625
11 *126:6 *1043:A 6.05161e-06
12 *127:10 *1044:B1 2.56601e-05
*RES
1 *1048:Q *129:6 9.83571 
2 *129:6 *1044:B1 22.0143 
3 *129:6 *1043:A 22.4071 
*END

*D_NET *130 0.000728494
*CONN
*I *1048:D I *D sky130_fd_sc_hd__dfrtp_1
*I *1047:X O *D sky130_fd_sc_hd__a21bo_1
*CAP
1 *1048:D 0.000287618
2 *1047:X 0.000287618
3 *1048:D *280:12 0.000100831
4 *1048:D *281:10 5.24274e-05
*RES
1 *1047:X *1048:D 31.5286 
*END

*D_NET *131 0.0024388
*CONN
*I *1123:A I *D sky130_fd_sc_hd__xnor2_1
*I *1124:A1 I *D sky130_fd_sc_hd__a21bo_1
*I *1049:Q O *D sky130_fd_sc_hd__dfrtp_1
*CAP
1 *1123:A 0
2 *1124:A1 0.000332515
3 *1049:Q 0.000689172
4 *131:12 0.00102169
5 *1124:A1 *1124:A2 9.71197e-05
6 *1124:A1 *204:12 0.000124521
7 *131:12 *206:12 0
8 *131:12 *283:10 0
9 *131:12 *284:10 0
10 *131:12 *285:14 0.00017378
11 *131:12 *298:154 0
*RES
1 *1049:Q *131:12 28.6214 
2 *131:12 *1124:A1 14.9071 
3 *131:12 *1123:A 9.3 
*END

*D_NET *132 0.000487552
*CONN
*I *1049:D I *D sky130_fd_sc_hd__dfrtp_1
*I *1046:Y O *D sky130_fd_sc_hd__xnor2_1
*CAP
1 *1049:D 0.000169044
2 *1046:Y 0.000169044
3 *1049:D *1049:RESET_B 9.7659e-05
4 *1049:D *283:10 4.57538e-05
5 *1049:D *285:14 0
6 *1049:D *297:645 6.05161e-06
*RES
1 *1046:Y *1049:D 31.0107 
*END

*D_NET *133 0.00142851
*CONN
*I *1054:B1_N I *D sky130_fd_sc_hd__a21bo_1
*I *1052:A I *D sky130_fd_sc_hd__nand2_1
*I *1050:Y O *D sky130_fd_sc_hd__nand3_1
*CAP
1 *1054:B1_N 0
2 *1052:A 0.000187159
3 *1050:Y 0.000304703
4 *133:8 0.000491862
5 *1052:A *1052:B 8.64974e-05
6 *1052:A *134:6 0.000117621
7 *133:8 *1050:A 1.02821e-05
8 *133:8 *1051:A1 0.00010096
9 *133:8 *1051:A2 2.14757e-05
10 *133:8 *134:6 1.02821e-05
11 *133:8 *136:12 9.76689e-05
*RES
1 *1050:Y *133:8 13.55 
2 *133:8 *1052:A 13.1393 
3 *133:8 *1054:B1_N 9.3 
*END

*D_NET *134 0.000871617
*CONN
*I *1054:A2 I *D sky130_fd_sc_hd__a21bo_1
*I *1052:B I *D sky130_fd_sc_hd__nand2_1
*I *1051:X O *D sky130_fd_sc_hd__a21o_1
*CAP
1 *1054:A2 0
2 *1052:B 0.000111098
3 *1051:X 0.000153017
4 *134:6 0.000264115
5 *1052:B *1053:B 3.18676e-05
6 *134:6 *136:12 9.71197e-05
7 *1052:A *1052:B 8.64974e-05
8 *1052:A *134:6 0.000117621
9 *133:8 *134:6 1.02821e-05
*RES
1 *1051:X *134:6 12.7107 
2 *134:6 *1052:B 11.9071 
3 *134:6 *1054:A2 9.3 
*END

*D_NET *135 0.000298816
*CONN
*I *1053:B I *D sky130_fd_sc_hd__xnor2_1
*I *1052:Y O *D sky130_fd_sc_hd__nand2_1
*CAP
1 *1053:B 0.000133474
2 *1052:Y 0.000133474
3 *1052:B *1053:B 3.18676e-05
4 *1053:A *1053:B 0
5 *40:16 *1053:B 0
*RES
1 *1052:Y *1053:B 29.7786 
*END

*D_NET *136 0.00126032
*CONN
*I *1050:A I *D sky130_fd_sc_hd__nand3_1
*I *1051:B1 I *D sky130_fd_sc_hd__a21o_1
*I *1055:Q O *D sky130_fd_sc_hd__dfrtp_1
*CAP
1 *1050:A 8.33895e-05
2 *1051:B1 0
3 *1055:Q 0.000250597
4 *136:12 0.000333987
5 *1050:A *1051:A1 3.4855e-05
6 *1050:A *1051:A2 9.90431e-05
7 *1050:A *298:572 0.00010096
8 *1053:A *136:12 0
9 *41:38 *136:12 6.57937e-05
10 *41:56 *136:12 8.66228e-05
11 *124:10 *136:12 0
12 *133:8 *1050:A 1.02821e-05
13 *133:8 *136:12 9.76689e-05
14 *134:6 *136:12 9.71197e-05
*RES
1 *1055:Q *136:12 24.1393 
2 *136:12 *1051:B1 9.3 
3 *136:12 *1050:A 11.925 
*END

*D_NET *137 0.00113268
*CONN
*I *1055:D I *D sky130_fd_sc_hd__dfrtp_1
*I *1054:X O *D sky130_fd_sc_hd__a21bo_1
*CAP
1 *1055:D 0.000416319
2 *1054:X 0.000416319
3 *1055:CLK *1055:D 0.000171497
4 *41:14 *1055:D 2.89114e-05
5 *124:10 *1055:D 9.96331e-05
*RES
1 *1054:X *1055:D 34.533 
*END

*D_NET *138 0.00242852
*CONN
*I *1060:A I *D sky130_fd_sc_hd__xnor2_1
*I *1061:A1 I *D sky130_fd_sc_hd__a21bo_1
*I *1056:Q O *D sky130_fd_sc_hd__dfrtp_1
*CAP
1 *1060:A 9.39124e-05
2 *1061:A1 8.95943e-06
3 *1056:Q 0.000386258
4 *138:12 0.00048913
5 *1060:A *1057:A 0
6 *1060:A *1060:B 0.000129868
7 *1060:A *140:12 0
8 *1060:A *141:12 6.5185e-05
9 *1060:A *143:8 0
10 *1060:A *293:18 5.08481e-05
11 *1061:A1 *1059:B 5.52238e-05
12 *1061:A1 *140:12 5.71472e-05
13 *138:12 *1020:RESET_B 0.000177234
14 *138:12 *1059:A 0.000139907
15 *138:12 *1059:B 0.000266486
16 *138:12 *140:12 0.000128496
17 *138:12 *302:18 0.000379863
18 *138:12 *303:8 0
*RES
1 *1056:Q *138:12 29.8179 
2 *138:12 *1061:A1 9.83571 
3 *138:12 *1060:A 21.1571 
*END

*D_NET *139 0.000489984
*CONN
*I *1056:D I *D sky130_fd_sc_hd__dfrtp_1
*I *1053:Y O *D sky130_fd_sc_hd__xnor2_1
*CAP
1 *1056:D 0.000218298
2 *1053:Y 0.000218298
3 *41:56 *1056:D 5.33882e-05
*RES
1 *1053:Y *1056:D 30.7071 
*END

*D_NET *140 0.00179454
*CONN
*I *1059:A I *D sky130_fd_sc_hd__nand2_1
*I *1061:B1_N I *D sky130_fd_sc_hd__a21bo_1
*I *1057:Y O *D sky130_fd_sc_hd__nand3_1
*CAP
1 *1059:A 0.000129236
2 *1061:B1_N 0
3 *1057:Y 0.000403867
4 *140:12 0.000533103
5 *1059:A *1059:B 5.30578e-05
6 *140:12 *1057:A 0.000117189
7 *140:12 *1058:A2 0
8 *140:12 *1059:B 2.44318e-05
9 *140:12 *1062:D 5.33433e-05
10 *140:12 *141:12 0
11 *140:12 *143:8 0.000154762
12 *140:12 *293:18 0
13 *1060:A *140:12 0
14 *1061:A1 *140:12 5.71472e-05
15 *138:12 *1059:A 0.000139907
16 *138:12 *140:12 0.000128496
*RES
1 *1057:Y *140:12 26.8 
2 *140:12 *1061:B1_N 9.3 
3 *140:12 *1059:A 11.9071 
*END

*D_NET *141 0.00129209
*CONN
*I *1059:B I *D sky130_fd_sc_hd__nand2_1
*I *1061:A2 I *D sky130_fd_sc_hd__a21bo_1
*I *1058:X O *D sky130_fd_sc_hd__a21o_1
*CAP
1 *1059:B 0.000188559
2 *1061:A2 0
3 *1058:X 0.000111739
4 *141:12 0.000300298
5 *1059:B *1060:B 0.000193814
6 *141:12 *1058:A1 5.39166e-06
7 *141:12 *143:8 2.79092e-05
8 *1059:A *1059:B 5.30578e-05
9 *1060:A *141:12 6.5185e-05
10 *1061:A1 *1059:B 5.52238e-05
11 *138:12 *1059:B 0.000266486
12 *140:12 *1059:B 2.44318e-05
13 *140:12 *141:12 0
*RES
1 *1058:X *141:12 20.4786 
2 *141:12 *1061:A2 9.3 
3 *141:12 *1059:B 14.7821 
*END

*D_NET *142 0.0010182
*CONN
*I *1060:B I *D sky130_fd_sc_hd__xnor2_1
*I *1059:Y O *D sky130_fd_sc_hd__nand2_1
*CAP
1 *1060:B 0.000283183
2 *1059:Y 0.000283183
3 *1060:B *293:18 0.000128154
4 *1059:B *1060:B 0.000193814
5 *1060:A *1060:B 0.000129868
*RES
1 *1059:Y *1060:B 32.6536 
*END

*D_NET *143 0.000741074
*CONN
*I *1057:A I *D sky130_fd_sc_hd__nand3_1
*I *1058:B1 I *D sky130_fd_sc_hd__a21o_1
*I *1062:Q O *D sky130_fd_sc_hd__dfrtp_1
*CAP
1 *1057:A 0.000133692
2 *1058:B1 0
3 *1062:Q 5.93026e-05
4 *143:8 0.000192995
5 *1057:A *1057:B 5.52238e-05
6 *1057:A *1058:A1 0
7 *1057:A *1058:A2 0
8 *1057:A *293:12 0
9 *1057:A *293:18 0
10 *1060:A *1057:A 0
11 *1060:A *143:8 0
12 *140:12 *1057:A 0.000117189
13 *140:12 *143:8 0.000154762
14 *141:12 *143:8 2.79092e-05
*RES
1 *1062:Q *143:8 15.7464 
2 *143:8 *1058:B1 13.8 
3 *143:8 *1057:A 16.5857 
*END

*D_NET *144 0.00093508
*CONN
*I *1062:D I *D sky130_fd_sc_hd__dfrtp_1
*I *1061:X O *D sky130_fd_sc_hd__a21bo_1
*CAP
1 *1062:D 0.000380199
2 *1061:X 0.000380199
3 *1062:D *1062:RESET_B 0.000121339
4 *140:12 *1062:D 5.33433e-05
*RES
1 *1061:X *1062:D 25.7071 
*END

*D_NET *145 0.000921623
*CONN
*I *1067:A I *D sky130_fd_sc_hd__xnor2_1
*I *1068:A1 I *D sky130_fd_sc_hd__a21bo_1
*I *1063:Q O *D sky130_fd_sc_hd__dfrtp_1
*CAP
1 *1067:A 0.000112557
2 *1068:A1 8.36426e-05
3 *1063:Q 0.000208987
4 *145:6 0.000405187
5 *1067:A *1065:B1 2.19778e-05
6 *1067:A *1068:A2 0
7 *1067:A *1068:B1_N 6.65302e-05
8 *1067:A *282:14 0
9 *1067:A *298:802 0
10 *145:6 *1068:B1_N 2.27416e-05
*RES
1 *1063:Q *145:6 12.7107 
2 *145:6 *1068:A1 10.6571 
3 *145:6 *1067:A 20.8536 
*END

*D_NET *146 0.00209169
*CONN
*I *1063:D I *D sky130_fd_sc_hd__dfrtp_1
*I *1060:Y O *D sky130_fd_sc_hd__xnor2_1
*CAP
1 *1063:D 0.000625003
2 *1060:Y 0.000625003
3 *1063:D *1013:RESET_B 0.000129868
4 *1063:D *297:181 0.000217478
5 *1063:D *302:10 0
6 *1063:D *302:18 0
7 *1063:D *303:8 5.08577e-05
8 *1013:CLK *1063:D 0.000215861
9 *1013:D *1063:D 0.000102197
10 *1063:CLK *1063:D 0.00012542
*RES
1 *1060:Y *1063:D 40.4214 
*END

*D_NET *147 0.00105304
*CONN
*I *1066:A I *D sky130_fd_sc_hd__nand2_1
*I *1068:B1_N I *D sky130_fd_sc_hd__a21bo_1
*I *1064:Y O *D sky130_fd_sc_hd__nand3_1
*CAP
1 *1066:A 6.14929e-05
2 *1068:B1_N 0.000112237
3 *1064:Y 0.000117304
4 *147:8 0.000291034
5 *1066:A *1065:B1 0
6 *1066:A *1067:B 6.98302e-05
7 *1066:A *282:14 7.57869e-05
8 *1068:B1_N *1065:B1 0
9 *1068:B1_N *1067:B 6.0038e-05
10 *1068:B1_N *282:14 0.000104227
11 *147:8 *1064:A 8.27184e-06
12 *147:8 *1070:D 5.33005e-05
13 *951:A *1066:A 1.02504e-05
14 *1067:A *1068:B1_N 6.65302e-05
15 *145:6 *1068:B1_N 2.27416e-05
*RES
1 *1064:Y *147:8 15.1571 
2 *147:8 *1068:B1_N 16.8893 
3 *147:8 *1066:A 15.7464 
*END

*D_NET *148 0.00107214
*CONN
*I *1066:B I *D sky130_fd_sc_hd__nand2_1
*I *1068:A2 I *D sky130_fd_sc_hd__a21bo_1
*I *1065:X O *D sky130_fd_sc_hd__a21o_1
*CAP
1 *1066:B 6.87406e-05
2 *1068:A2 0.000236019
3 *1065:X 0
4 *148:4 0.00030476
5 *1066:B *1064:C 5.71472e-05
6 *1066:B *1065:A2 0
7 *1068:A2 *1064:C 3.1521e-05
8 *1068:A2 *1065:B1 0.00020112
9 *1068:A2 *298:802 0.000172829
10 *1067:A *1068:A2 0
*RES
1 *1065:X *148:4 9.3 
2 *148:4 *1068:A2 23.7286 
3 *148:4 *1066:B 10.8714 
*END

*D_NET *149 0.000259652
*CONN
*I *1067:B I *D sky130_fd_sc_hd__xnor2_1
*I *1066:Y O *D sky130_fd_sc_hd__nand2_1
*CAP
1 *1067:B 6.4892e-05
2 *1066:Y 6.4892e-05
3 *1067:B *1065:B1 0
4 *1066:A *1067:B 6.98302e-05
5 *1068:B1_N *1067:B 6.0038e-05
*RES
1 *1066:Y *1067:B 29.2429 
*END

*D_NET *150 0.00138961
*CONN
*I *1064:A I *D sky130_fd_sc_hd__nand3_1
*I *1065:B1 I *D sky130_fd_sc_hd__a21o_1
*I *1069:Q O *D sky130_fd_sc_hd__dfrtp_1
*CAP
1 *1064:A 0.000343521
2 *1065:B1 0.000124853
3 *1069:Q 9.14226e-05
4 *150:6 0.000559797
5 *1064:A *1070:D 1.07719e-05
6 *1065:B1 *298:802 2.78729e-05
7 *1066:A *1065:B1 0
8 *1067:A *1065:B1 2.19778e-05
9 *1067:B *1065:B1 0
10 *1068:A2 *1065:B1 0.00020112
11 *1068:B1_N *1065:B1 0
12 *147:8 *1064:A 8.27184e-06
*RES
1 *1069:Q *150:6 10.2464 
2 *150:6 *1065:B1 21.7643 
3 *150:6 *1064:A 13.4429 
*END

*D_NET *151 0.0013313
*CONN
*I *1069:D I *D sky130_fd_sc_hd__dfrtp_1
*I *1068:X O *D sky130_fd_sc_hd__a21bo_1
*CAP
1 *1069:D 0.000595244
2 *1068:X 0.000595244
3 *1069:D *1069:RESET_B 0.000140815
4 *1105:CLK *1069:D 0
*RES
1 *1068:X *1069:D 35.35 
*END

*D_NET *152 0.00158122
*CONN
*I *1074:A I *D sky130_fd_sc_hd__xnor2_1
*I *1075:A1 I *D sky130_fd_sc_hd__a21bo_1
*I *1070:Q O *D sky130_fd_sc_hd__dfrtp_1
*CAP
1 *1074:A 2.7776e-05
2 *1075:A1 0.000260518
3 *1070:Q 0.000213187
4 *152:10 0.000501481
5 *1074:A *282:14 0
6 *1074:A *296:12 4.66511e-05
7 *1075:A1 *1073:A 1.21289e-05
8 *1075:A1 *1073:B 0.000140018
9 *1075:A1 *1074:B 0.00018372
10 *152:10 *282:14 0
11 *152:10 *296:12 0.00010326
12 *152:10 *297:233 9.24825e-05
*RES
1 *1070:Q *152:10 17.3179 
2 *152:10 *1075:A1 18.8714 
3 *152:10 *1074:A 14.5321 
*END

*D_NET *153 0.00165938
*CONN
*I *1070:D I *D sky130_fd_sc_hd__dfrtp_1
*I *1067:Y O *D sky130_fd_sc_hd__xnor2_1
*CAP
1 *1070:D 0.000466992
2 *1067:Y 0.000466992
3 *1070:D *1007:RESET_B 1.92905e-05
4 *1070:D *297:171 3.34366e-05
5 *1070:D *297:173 0.000290993
6 *1070:D *303:8 0.000317609
7 *1064:A *1070:D 1.07719e-05
8 *147:8 *1070:D 5.33005e-05
*RES
1 *1067:Y *1070:D 37.1357 
*END

*D_NET *154 0.000919832
*CONN
*I *1075:B1_N I *D sky130_fd_sc_hd__a21bo_1
*I *1073:A I *D sky130_fd_sc_hd__nand2_1
*I *1071:Y O *D sky130_fd_sc_hd__nand3_1
*CAP
1 *1075:B1_N 0
2 *1073:A 0.000102169
3 *1071:Y 0.000296349
4 *154:12 0.000398518
5 *1073:A *1073:B 5.71472e-05
6 *1073:A *1074:B 3.18676e-05
7 *154:12 *1071:A 6.05161e-06
8 *154:12 *1071:C 1.56e-05
9 *154:12 *297:233 0
10 *1075:A1 *1073:A 1.21289e-05
*RES
1 *1071:Y *154:12 21.925 
2 *154:12 *1073:A 11.5143 
3 *154:12 *1075:B1_N 9.3 
*END

*D_NET *155 0.00122355
*CONN
*I *1073:B I *D sky130_fd_sc_hd__nand2_1
*I *1075:A2 I *D sky130_fd_sc_hd__a21bo_1
*I *1072:X O *D sky130_fd_sc_hd__a21o_1
*CAP
1 *1073:B 0.000120624
2 *1075:A2 0
3 *1072:X 0.000198499
4 *155:12 0.000319122
5 *155:12 *1071:A 5.83304e-05
6 *155:12 *1072:B1 0.000272658
7 *155:12 *297:233 0
8 *155:12 *298:789 5.71472e-05
9 *1073:A *1073:B 5.71472e-05
10 *1075:A1 *1073:B 0.000140018
*RES
1 *1072:X *155:12 22.9071 
2 *155:12 *1075:A2 9.3 
3 *155:12 *1073:B 12.3179 
*END

*D_NET *156 0.000342453
*CONN
*I *1074:B I *D sky130_fd_sc_hd__xnor2_1
*I *1073:Y O *D sky130_fd_sc_hd__nand2_1
*CAP
1 *1074:B 6.34331e-05
2 *1073:Y 6.34331e-05
3 *1073:A *1074:B 3.18676e-05
4 *1075:A1 *1074:B 0.00018372
*RES
1 *1073:Y *1074:B 20.3679 
*END

*D_NET *157 0.00172611
*CONN
*I *1071:A I *D sky130_fd_sc_hd__nand3_1
*I *1072:B1 I *D sky130_fd_sc_hd__a21o_1
*I *1076:Q O *D sky130_fd_sc_hd__dfrtp_1
*CAP
1 *1071:A 0.000167365
2 *1072:B1 0.000125259
3 *1076:Q 8.47417e-05
4 *157:8 0.000377366
5 *1071:A *1071:C 9.58126e-05
6 *1071:A *1072:A1 0.000211577
7 *1071:A *295:14 3.27461e-05
8 *1071:A *297:233 0
9 *1071:A *297:247 0
10 *1072:B1 *1072:A1 0.000265799
11 *1072:B1 *298:196 0
12 *157:8 *1076:D 2.84026e-05
13 *154:12 *1071:A 6.05161e-06
14 *155:12 *1071:A 5.83304e-05
15 *155:12 *1072:B1 0.000272658
*RES
1 *1076:Q *157:8 14.7464 
2 *157:8 *1072:B1 17.8714 
3 *157:8 *1071:A 17.9071 
*END

*D_NET *158 0.000959396
*CONN
*I *1076:D I *D sky130_fd_sc_hd__dfrtp_1
*I *1075:X O *D sky130_fd_sc_hd__a21bo_1
*CAP
1 *1076:D 0.000363319
2 *1075:X 0.000363319
3 *1076:D *1076:RESET_B 0.000124726
4 *42:44 *1076:D 7.96294e-05
5 *157:8 *1076:D 2.84026e-05
*RES
1 *1075:X *1076:D 25.7071 
*END

*D_NET *159 0.00171496
*CONN
*I *1082:A1 I *D sky130_fd_sc_hd__a21bo_1
*I *1081:A I *D sky130_fd_sc_hd__xnor2_1
*I *1077:Q O *D sky130_fd_sc_hd__dfrtp_1
*CAP
1 *1082:A1 0.000218298
2 *1081:A 8.23923e-05
3 *1077:Q 0.000158521
4 *159:8 0.000459211
5 *1081:A *166:10 0.000180777
6 *1082:A1 *1081:B 6.05161e-06
7 *1082:A1 *1082:A2 5.71472e-05
8 *1082:A1 *1083:D 3.14163e-05
9 *1082:A1 *295:14 0
10 *1082:A1 *297:247 0.000201127
11 *159:8 *295:14 0
12 *159:8 *297:247 0.000320024
*RES
1 *1077:Q *159:8 17.8714 
2 *159:8 *1081:A 15.5679 
3 *159:8 *1082:A1 18.5321 
*END

*D_NET *160 0.000865856
*CONN
*I *1077:D I *D sky130_fd_sc_hd__dfrtp_1
*I *1074:Y O *D sky130_fd_sc_hd__xnor2_1
*CAP
1 *1077:D 0.000303694
2 *1074:Y 0.000303694
3 *1077:D *293:12 3.5707e-05
4 *1077:D *302:10 5.33882e-05
5 *959:A *1077:D 0.000169373
*RES
1 *1074:Y *1077:D 32.35 
*END

*D_NET *161 0.00117453
*CONN
*I *1082:B1_N I *D sky130_fd_sc_hd__a21bo_1
*I *1080:A I *D sky130_fd_sc_hd__nand2_1
*I *1078:Y O *D sky130_fd_sc_hd__nand3_1
*CAP
1 *1082:B1_N 0.000106383
2 *1080:A 0
3 *1078:Y 0.00015643
4 *161:12 0.000262813
5 *1082:B1_N *1081:B 1.32552e-05
6 *1082:B1_N *1082:A2 5.33005e-05
7 *161:12 *999:RESET_B 5.33005e-05
8 *161:12 *162:10 0.000128941
9 *161:12 *164:10 8.00806e-05
10 *161:12 *293:12 0.000320024
*RES
1 *1078:Y *161:12 22.9071 
2 *161:12 *1080:A 9.3 
3 *161:12 *1082:B1_N 11.0857 
*END

*D_NET *162 0.00112316
*CONN
*I *1080:B I *D sky130_fd_sc_hd__nand2_1
*I *1082:A2 I *D sky130_fd_sc_hd__a21bo_1
*I *1079:X O *D sky130_fd_sc_hd__a21o_1
*CAP
1 *1080:B 0
2 *1082:A2 0.000107604
3 *1079:X 9.42072e-05
4 *162:10 0.000201811
5 *1082:A2 *1081:B 8.00431e-05
6 *162:10 *164:10 8.00806e-05
7 *162:10 *282:14 0.000320031
8 *1082:A1 *1082:A2 5.71472e-05
9 *1082:B1_N *1082:A2 5.33005e-05
10 *161:12 *162:10 0.000128941
*RES
1 *1079:X *162:10 22.3714 
2 *162:10 *1082:A2 11.8893 
3 *162:10 *1080:B 9.3 
*END

*D_NET *163 0.000700568
*CONN
*I *1081:B I *D sky130_fd_sc_hd__xnor2_1
*I *1080:Y O *D sky130_fd_sc_hd__nand2_1
*CAP
1 *1081:B 0.000265711
2 *1080:Y 0.000265711
3 *1081:B *282:14 0
4 *1081:B *296:12 6.97972e-05
5 *1082:A1 *1081:B 6.05161e-06
6 *1082:A2 *1081:B 8.00431e-05
7 *1082:B1_N *1081:B 1.32552e-05
*RES
1 *1080:Y *1081:B 31.8321 
*END

*D_NET *164 0.000628291
*CONN
*I *1078:A I *D sky130_fd_sc_hd__nand3_1
*I *1079:B1 I *D sky130_fd_sc_hd__a21o_1
*I *1083:Q O *D sky130_fd_sc_hd__dfrtp_1
*CAP
1 *1078:A 0
2 *1079:B1 3.55893e-05
3 *1083:Q 5.27694e-05
4 *164:10 8.83587e-05
5 *1079:B1 *999:RESET_B 7.32272e-05
6 *1079:B1 *298:63 0.000139907
7 *164:10 *1078:B 9.25014e-06
8 *164:10 *282:14 3.67452e-05
9 *164:10 *293:12 3.22834e-05
10 *161:12 *164:10 8.00806e-05
11 *162:10 *164:10 8.00806e-05
*RES
1 *1083:Q *164:10 20.2464 
2 *164:10 *1079:B1 10.6571 
3 *164:10 *1078:A 9.3 
*END

*D_NET *165 0.000712315
*CONN
*I *1083:D I *D sky130_fd_sc_hd__dfrtp_1
*I *1082:X O *D sky130_fd_sc_hd__a21bo_1
*CAP
1 *1083:D 0.000321476
2 *1082:X 0.000321476
3 *1083:D *295:14 3.79467e-05
4 *1083:D *297:247 0
5 *1082:A1 *1083:D 3.14163e-05
*RES
1 *1082:X *1083:D 31.9393 
*END

*D_NET *166 0.00287099
*CONN
*I *1088:A I *D sky130_fd_sc_hd__xnor2_1
*I *1089:A1 I *D sky130_fd_sc_hd__a21bo_1
*I *1084:Q O *D sky130_fd_sc_hd__dfrtp_1
*CAP
1 *1088:A 0
2 *1089:A1 0.000339423
3 *1084:Q 0.000693654
4 *166:10 0.00103308
5 *1089:A1 *1085:A 3.70036e-05
6 *1089:A1 *1089:A2 9.58126e-05
7 *1089:A1 *1089:B1_N 7.85137e-05
8 *1089:A1 *298:37 0.000166632
9 *1089:A1 *298:194 0.000201127
10 *166:10 *1084:D 2.72859e-05
11 *1081:A *166:10 0.000180777
12 *42:103 *1089:A1 1.76828e-05
*RES
1 *1084:Q *166:10 20.1393 
2 *166:10 *1089:A1 25.8357 
3 *166:10 *1088:A 9.3 
*END

*D_NET *167 0.00140686
*CONN
*I *1084:D I *D sky130_fd_sc_hd__dfrtp_1
*I *1081:Y O *D sky130_fd_sc_hd__xnor2_1
*CAP
1 *1084:D 0.000624875
2 *1081:Y 0.000624875
3 *43:54 *1084:D 0.000129826
4 *166:10 *1084:D 2.72859e-05
*RES
1 *1081:Y *1084:D 26.1714 
*END

*D_NET *168 0.000877098
*CONN
*I *1087:A I *D sky130_fd_sc_hd__nand2_1
*I *1089:B1_N I *D sky130_fd_sc_hd__a21bo_1
*I *1085:Y O *D sky130_fd_sc_hd__nand3_1
*CAP
1 *1087:A 9.87682e-05
2 *1089:B1_N 0.000154922
3 *1085:Y 0
4 *168:4 0.00025369
5 *1087:A *1085:A 7.75342e-05
6 *1087:A *1085:B 1.59373e-05
7 *1089:B1_N *1085:A 0.000129944
8 *1089:B1_N *1087:B 5.33005e-05
9 *1089:B1_N *298:186 6.05161e-06
10 *1089:B1_N *298:194 8.43535e-06
11 *1089:A1 *1089:B1_N 7.85137e-05
*RES
1 *1085:Y *168:4 9.3 
2 *168:4 *1089:B1_N 20.8179 
3 *168:4 *1087:A 10.9786 
*END

*D_NET *169 0.00186836
*CONN
*I *1087:B I *D sky130_fd_sc_hd__nand2_1
*I *1089:A2 I *D sky130_fd_sc_hd__a21bo_1
*I *1086:X O *D sky130_fd_sc_hd__a21o_1
*CAP
1 *1087:B 0.000309429
2 *1089:A2 7.11321e-05
3 *1086:X 1.8297e-05
4 *169:6 0.000398859
5 *1087:B *1085:A 0.000139208
6 *1087:B *1085:B 0.000179032
7 *1087:B *1086:A1 5.48009e-05
8 *1087:B *1086:A2 5.49489e-05
9 *1087:B *292:12 3.12359e-05
10 *1087:B *295:14 0.00015134
11 *1089:A2 *298:37 9.8621e-05
12 *169:6 *1085:A 5.33005e-05
13 *169:6 *298:37 9.90367e-05
14 *1083:CLK *1087:B 6.00103e-05
15 *1089:A1 *1089:A2 9.58126e-05
16 *1089:B1_N *1087:B 5.33005e-05
*RES
1 *1086:X *169:6 10.2464 
2 *169:6 *1089:A2 11.0679 
3 *169:6 *1087:B 25.3357 
*END

*D_NET *170 0.000458109
*CONN
*I *1088:B I *D sky130_fd_sc_hd__xnor2_1
*I *1087:Y O *D sky130_fd_sc_hd__nand2_1
*CAP
1 *1088:B 0.000139394
2 *1087:Y 0.000139394
3 *1088:B *1085:B 5.20751e-05
4 *42:103 *1088:B 0.000127246
*RES
1 *1087:Y *1088:B 30.1893 
*END

*D_NET *171 0.00135674
*CONN
*I *1086:B1 I *D sky130_fd_sc_hd__a21o_1
*I *1085:A I *D sky130_fd_sc_hd__nand3_1
*I *1090:Q O *D sky130_fd_sc_hd__dfrtp_1
*CAP
1 *1086:B1 0
2 *1085:A 0.000157578
3 *1090:Q 7.22521e-05
4 *171:10 0.00022983
5 *1085:A *1085:B 3.8624e-05
6 *1085:A *298:37 1.51571e-05
7 *1085:A *298:194 6.05161e-06
8 *171:10 *1086:A2 2.41972e-05
9 *171:10 *298:54 4.51972e-05
10 *1083:CLK *1085:A 5.49489e-05
11 *1087:A *1085:A 7.75342e-05
12 *1087:B *1085:A 0.000139208
13 *1089:A1 *1085:A 3.70036e-05
14 *1089:B1_N *1085:A 0.000129944
15 *42:103 *1085:A 0.000144038
16 *42:103 *171:10 1.0033e-05
17 *42:120 *171:10 0.000121842
18 *169:6 *1085:A 5.33005e-05
*RES
1 *1090:Q *171:10 20.2464 
2 *171:10 *1085:A 22.9786 
3 *171:10 *1086:B1 9.3 
*END

*D_NET *172 0.000746433
*CONN
*I *1090:D I *D sky130_fd_sc_hd__dfrtp_1
*I *1089:X O *D sky130_fd_sc_hd__a21bo_1
*CAP
1 *1090:D 0.000277089
2 *1089:X 0.000277089
3 *1090:D *290:14 6.65302e-05
4 *1090:D *297:286 0.000125724
*RES
1 *1089:X *1090:D 31.8321 
*END

*D_NET *173 0.00117521
*CONN
*I *1095:A I *D sky130_fd_sc_hd__xnor2_1
*I *1096:A1 I *D sky130_fd_sc_hd__a21bo_1
*I *1091:Q O *D sky130_fd_sc_hd__dfrtp_1
*CAP
1 *1095:A 0
2 *1096:A1 0.00029356
3 *1091:Q 0.000139128
4 *173:8 0.000432688
5 *1096:A1 *271:8 0
6 *1096:A1 *286:8 0.000213756
7 *173:8 *1095:B 9.60771e-05
*RES
1 *1091:Q *173:8 11.9071 
2 *173:8 *1096:A1 25.4071 
3 *173:8 *1095:A 9.3 
*END

*D_NET *174 0.000445427
*CONN
*I *1091:D I *D sky130_fd_sc_hd__dfrtp_1
*I *1088:Y O *D sky130_fd_sc_hd__xnor2_1
*CAP
1 *1091:D 0.000179386
2 *1088:Y 0.000179386
3 *1091:D *297:286 0
4 *1091:D *297:288 0
5 *1091:D *298:194 3.006e-05
6 *1091:CLK *1091:D 5.65955e-05
*RES
1 *1088:Y *1091:D 30.7071 
*END

*D_NET *175 0.000588496
*CONN
*I *1094:A I *D sky130_fd_sc_hd__nand2_1
*I *1096:B1_N I *D sky130_fd_sc_hd__a21bo_1
*I *1092:Y O *D sky130_fd_sc_hd__nand3_1
*CAP
1 *1094:A 0.000126476
2 *1096:B1_N 0.000115291
3 *1092:Y 0
4 *175:4 0.000241767
5 *1094:A *1092:A 3.93346e-05
6 *1094:A *1094:B 3.05385e-05
7 *1096:B1_N *1094:B 2.97829e-05
8 *1096:B1_N *1096:A2 5.30637e-06
*RES
1 *1092:Y *175:4 9.3 
2 *175:4 *1096:B1_N 10.6571 
3 *175:4 *1094:A 11.6393 
*END

*D_NET *176 0.00183641
*CONN
*I *1094:B I *D sky130_fd_sc_hd__nand2_1
*I *1096:A2 I *D sky130_fd_sc_hd__a21bo_1
*I *1093:X O *D sky130_fd_sc_hd__a21o_1
*CAP
1 *1094:B 0.000269175
2 *1096:A2 0.000138521
3 *1093:X 0.000105465
4 *176:10 0.000513161
5 *1094:B *1092:A 0.000106825
6 *176:10 *274:12 0.000317602
7 *176:10 *286:8 0.000320031
8 *1094:A *1094:B 3.05385e-05
9 *1096:B1_N *1094:B 2.97829e-05
10 *1096:B1_N *1096:A2 5.30637e-06
*RES
1 *1093:X *176:10 22.3714 
2 *176:10 *1096:A2 11.4786 
3 *176:10 *1094:B 13.8714 
*END

*D_NET *177 0.00157833
*CONN
*I *1095:B I *D sky130_fd_sc_hd__xnor2_1
*I *1094:Y O *D sky130_fd_sc_hd__nand2_1
*CAP
1 *1095:B 0.000525384
2 *1094:Y 0.000525384
3 *1095:B *1093:A2 0.000126439
4 *1095:B *274:12 0
5 *1095:B *274:14 0
6 *1095:B *289:18 0.000305046
7 *1095:B *298:10 0
8 *173:8 *1095:B 9.60771e-05
*RES
1 *1094:Y *1095:B 38.9571 
*END

*D_NET *178 0.00139747
*CONN
*I *1093:B1 I *D sky130_fd_sc_hd__a21o_1
*I *1092:A I *D sky130_fd_sc_hd__nand3_1
*I *1097:Q O *D sky130_fd_sc_hd__dfrtp_1
*CAP
1 *1093:B1 0.000203709
2 *1092:A 0.000133305
3 *1097:Q 0
4 *178:6 0.000337014
5 *1092:A *1093:A2 0.000128233
6 *1092:A *289:18 0.000245356
7 *1093:B1 *1093:A2 4.75812e-05
8 *1093:B1 *289:18 8.00806e-05
9 *1093:B1 *291:10 7.60272e-05
10 *1094:A *1092:A 3.93346e-05
11 *1094:B *1092:A 0.000106825
*RES
1 *1097:Q *178:6 13.8 
2 *178:6 *1092:A 18.3357 
3 *178:6 *1093:B1 17.7464 
*END

*D_NET *179 0.00043468
*CONN
*I *1097:D I *D sky130_fd_sc_hd__dfrtp_1
*I *1096:X O *D sky130_fd_sc_hd__a21bo_1
*CAP
1 *1097:D 0.000153621
2 *1096:X 0.000153621
3 *1097:D *271:8 0.000127439
4 *1097:D *286:8 0
*RES
1 *1096:X *1097:D 30.1893 
*END

*D_NET *180 0.00254297
*CONN
*I *1102:A I *D sky130_fd_sc_hd__xnor2_1
*I *1103:A1 I *D sky130_fd_sc_hd__a21bo_1
*I *1098:Q O *D sky130_fd_sc_hd__dfrtp_1
*CAP
1 *1102:A 3.01209e-05
2 *1103:A1 0.000393944
3 *1098:Q 0.000214761
4 *180:12 0.000638826
5 *1102:A *1103:B1_N 2.60984e-05
6 *1102:A *1104:RESET_B 9.71197e-05
7 *1103:A1 *1103:B1_N 0.000108447
8 *1103:A1 *1104:D 0
9 *1103:A1 *1104:RESET_B 7.81015e-05
10 *1103:A1 *271:8 0
11 *1103:A1 *286:8 0.000106542
12 *180:12 *1098:RESET_B 5.52238e-05
13 *180:12 *1099:A 0.00012501
14 *180:12 *1100:B1 5.7616e-05
15 *180:12 *182:10 6.19181e-05
16 *180:12 *289:18 0.000181134
17 *180:12 *290:14 0.000368104
*RES
1 *1098:Q *180:12 25.3357 
2 *180:12 *1103:A1 25.925 
3 *180:12 *1102:A 10.2464 
*END

*D_NET *181 0.000430904
*CONN
*I *1098:D I *D sky130_fd_sc_hd__dfrtp_1
*I *1095:Y O *D sky130_fd_sc_hd__xnor2_1
*CAP
1 *1098:D 0.000150518
2 *1095:Y 0.000150518
3 *1098:D *271:8 0.000129868
4 *1098:D *286:8 0
*RES
1 *1095:Y *1098:D 30.1893 
*END

*D_NET *182 0.00227896
*CONN
*I *1103:B1_N I *D sky130_fd_sc_hd__a21bo_1
*I *1101:A I *D sky130_fd_sc_hd__nand2_1
*I *1099:Y O *D sky130_fd_sc_hd__nand3_1
*CAP
1 *1103:B1_N 0.000381861
2 *1101:A 7.10873e-05
3 *1099:Y 0.000194473
4 *182:10 0.000647421
5 *1101:A *1102:B 7.83587e-05
6 *1101:A *289:18 0
7 *1101:A *297:296 7.8327e-05
8 *1101:A *298:229 4.1331e-06
9 *1103:B1_N *1100:A1 0.000165554
10 *1103:B1_N *1100:B1 1.24368e-05
11 *1103:B1_N *1101:B 0.00010096
12 *1103:B1_N *183:6 3.18676e-05
13 *1103:B1_N *274:14 6.48957e-05
14 *182:10 *1100:B1 4.98055e-06
15 *182:10 *1102:B 4.90803e-05
16 *182:10 *290:14 9.60939e-05
17 *182:10 *297:292 4.66203e-05
18 *182:10 *297:296 5.43491e-05
19 *1102:A *1103:B1_N 2.60984e-05
20 *1103:A1 *1103:B1_N 0.000108447
21 *180:12 *182:10 6.19181e-05
*RES
1 *1099:Y *182:10 17.7107 
2 *182:10 *1101:A 15.7464 
3 *182:10 *1103:B1_N 28.9964 
*END

*D_NET *183 0.00123301
*CONN
*I *1101:B I *D sky130_fd_sc_hd__nand2_1
*I *1103:A2 I *D sky130_fd_sc_hd__a21bo_1
*I *1100:X O *D sky130_fd_sc_hd__a21o_1
*CAP
1 *1101:B 0.000339353
2 *1103:A2 0.000119561
3 *1100:X 3.87299e-05
4 *183:6 0.000497644
5 *1101:B *1099:C 8.25843e-06
6 *1101:B *1100:A1 3.66524e-05
7 *1101:B *1100:B1 4.17492e-05
8 *1101:B *298:204 1.15281e-05
9 *1101:B *298:221 6.70062e-06
10 *1103:B1_N *1101:B 0.00010096
11 *1103:B1_N *183:6 3.18676e-05
*RES
1 *1100:X *183:6 10.2464 
2 *183:6 *1103:A2 11.0679 
3 *183:6 *1101:B 14.4339 
*END

*D_NET *184 0.000299015
*CONN
*I *1102:B I *D sky130_fd_sc_hd__xnor2_1
*I *1101:Y O *D sky130_fd_sc_hd__nand2_1
*CAP
1 *1102:B 5.48291e-05
2 *1101:Y 5.48291e-05
3 *1102:B *1100:B1 6.19181e-05
4 *1101:A *1102:B 7.83587e-05
5 *182:10 *1102:B 4.90803e-05
*RES
1 *1101:Y *1102:B 29.2429 
*END

*D_NET *185 0.0013785
*CONN
*I *1099:A I *D sky130_fd_sc_hd__nand3_1
*I *1100:B1 I *D sky130_fd_sc_hd__a21o_1
*I *1104:Q O *D sky130_fd_sc_hd__dfrtp_1
*CAP
1 *1099:A 4.34574e-05
2 *1100:B1 0.000281178
3 *1104:Q 0
4 *185:6 0.000324635
5 *1099:A *289:18 0.000114759
6 *1100:B1 *1099:C 9.60939e-05
7 *1100:B1 *1100:A1 5.7661e-06
8 *1100:B1 *289:18 0.000195562
9 *1100:B1 *298:204 1.33343e-05
10 *1100:B1 *298:221 0
11 *1101:B *1100:B1 4.17492e-05
12 *1102:B *1100:B1 6.19181e-05
13 *1103:B1_N *1100:B1 1.24368e-05
14 *180:12 *1099:A 0.00012501
15 *180:12 *1100:B1 5.7616e-05
16 *182:10 *1100:B1 4.98055e-06
*RES
1 *1104:Q *185:6 13.8 
2 *185:6 *1100:B1 19.6929 
3 *185:6 *1099:A 15.4429 
*END

*D_NET *186 0.000494635
*CONN
*I *1104:D I *D sky130_fd_sc_hd__dfrtp_1
*I *1103:X O *D sky130_fd_sc_hd__a21bo_1
*CAP
1 *1104:D 0.000182383
2 *1103:X 0.000182383
3 *1104:D *271:8 0.000129868
4 *1103:A1 *1104:D 0
*RES
1 *1103:X *1104:D 30.6 
*END

*D_NET *187 0.00211098
*CONN
*I *1109:A I *D sky130_fd_sc_hd__xnor2_1
*I *1110:A1 I *D sky130_fd_sc_hd__a21bo_1
*I *1105:Q O *D sky130_fd_sc_hd__dfrtp_1
*CAP
1 *1109:A 7.96403e-05
2 *1110:A1 0.000338985
3 *1105:Q 0.000278
4 *187:12 0.000696626
5 *1109:A *1109:B 5.52302e-05
6 *1109:A *1111:RESET_B 1.74352e-05
7 *1110:A1 *1106:B 1.08359e-05
8 *1110:A1 *1108:B 6.86792e-05
9 *1110:A1 *1109:B 9.41642e-05
10 *1110:A1 *1110:A2 0.000294189
11 *1110:A1 *1111:RESET_B 2.05627e-05
12 *1110:A1 *274:14 0
13 *187:12 *1108:A 5.59013e-05
14 *187:12 *289:18 0
15 *187:12 *297:308 0
16 *187:12 *298:229 0
17 *187:12 *298:244 0.000100735
*RES
1 *1105:Q *187:12 23.5143 
2 *187:12 *1110:A1 24.9071 
3 *187:12 *1109:A 10.9786 
*END

*D_NET *188 0.00142416
*CONN
*I *1105:D I *D sky130_fd_sc_hd__dfrtp_1
*I *1102:Y O *D sky130_fd_sc_hd__xnor2_1
*CAP
1 *1105:D 0.000491338
2 *1102:Y 0.000491338
3 *1105:D *1069:RESET_B 0
4 *1105:D *1105:RESET_B 3.02581e-06
5 *1105:D *297:296 0.000292708
6 *1105:D *297:302 6.62883e-05
7 *1105:D *297:308 0
8 *1105:D *298:229 0
9 *1105:CLK *1105:D 7.94632e-05
10 *42:10 *1105:D 0
*RES
1 *1102:Y *1105:D 37.4393 
*END

*D_NET *189 0.000976016
*CONN
*I *1108:A I *D sky130_fd_sc_hd__nand2_1
*I *1110:B1_N I *D sky130_fd_sc_hd__a21bo_1
*I *1106:Y O *D sky130_fd_sc_hd__nand3_1
*CAP
1 *1108:A 0.000160699
2 *1110:B1_N 0.000185017
3 *1106:Y 0
4 *189:4 0.000345716
5 *1108:A *298:244 0.000148196
6 *1110:B1_N *1106:A 7.30515e-05
7 *1110:B1_N *1110:A2 7.43578e-06
8 *187:12 *1108:A 5.59013e-05
*RES
1 *1106:Y *189:4 9.3 
2 *189:4 *1110:B1_N 12.8536 
3 *189:4 *1108:A 21.1929 
*END

*D_NET *190 0.00140685
*CONN
*I *1108:B I *D sky130_fd_sc_hd__nand2_1
*I *1110:A2 I *D sky130_fd_sc_hd__a21bo_1
*I *1107:X O *D sky130_fd_sc_hd__a21o_1
*CAP
1 *1108:B 4.53808e-05
2 *1110:A2 0.00017743
3 *1107:X 6.4763e-05
4 *190:8 0.000287574
5 *1108:B *1111:RESET_B 0.000136958
6 *1110:A2 *1106:B 0.000198705
7 *1110:A2 *274:14 0
8 *190:8 *1106:B 0.000125731
9 *190:8 *274:14 0
10 *1110:A1 *1108:B 6.86792e-05
11 *1110:A1 *1110:A2 0.000294189
12 *1110:B1_N *1110:A2 7.43578e-06
*RES
1 *1107:X *190:8 15.4429 
2 *190:8 *1110:A2 18.5321 
3 *190:8 *1108:B 15.1571 
*END

*D_NET *191 0.000312791
*CONN
*I *1109:B I *D sky130_fd_sc_hd__xnor2_1
*I *1108:Y O *D sky130_fd_sc_hd__nand2_1
*CAP
1 *1109:B 4.73586e-05
2 *1108:Y 4.73586e-05
3 *1109:B *1111:RESET_B 6.86792e-05
4 *1109:A *1109:B 5.52302e-05
5 *1110:A1 *1109:B 9.41642e-05
*RES
1 *1108:Y *1109:B 19.9571 
*END

*D_NET *192 0.00140298
*CONN
*I *1107:B1 I *D sky130_fd_sc_hd__a21o_1
*I *1106:A I *D sky130_fd_sc_hd__nand3_1
*I *1111:Q O *D sky130_fd_sc_hd__dfrtp_1
*CAP
1 *1107:B1 9.81712e-05
2 *1106:A 0.000126284
3 *1111:Q 0
4 *192:6 0.000224455
5 *1106:A *1106:B 0.000247064
6 *1106:A *298:244 0.00013053
7 *1107:B1 *1106:B 0.000190129
8 *1107:B1 *1107:A1 5.52238e-05
9 *1107:B1 *1107:A2 0.00018372
10 *1107:B1 *289:18 6.8646e-06
11 *1107:B1 *298:244 6.74911e-05
12 *1110:B1_N *1106:A 7.30515e-05
*RES
1 *1111:Q *192:6 13.8 
2 *192:6 *1106:A 17.925 
3 *192:6 *1107:B1 17.2107 
*END

*D_NET *193 0.00062555
*CONN
*I *1111:D I *D sky130_fd_sc_hd__dfrtp_1
*I *1110:X O *D sky130_fd_sc_hd__a21bo_1
*CAP
1 *1111:D 0.000248698
2 *1110:X 0.000248698
3 *1111:D *271:8 0
4 *1111:D *286:8 0.000128154
*RES
1 *1110:X *1111:D 32.2429 
*END

*D_NET *194 0.00128246
*CONN
*I *1116:A I *D sky130_fd_sc_hd__xnor2_1
*I *1117:A1 I *D sky130_fd_sc_hd__a21bo_1
*I *1112:Q O *D sky130_fd_sc_hd__dfrtp_1
*CAP
1 *1116:A 0
2 *1117:A1 0.000196838
3 *1112:Q 0.000277873
4 *194:12 0.000474711
5 *1117:A1 *1117:A2 9.90367e-05
6 *194:12 *1115:B 0.000148182
7 *194:12 *1116:B 6.75007e-05
8 *194:12 *201:10 1.83136e-05
9 *194:12 *298:265 0
10 *194:12 *298:269 0
*RES
1 *1112:Q *194:12 23.7286 
2 *194:12 *1117:A1 12.7107 
3 *194:12 *1116:A 9.3 
*END

*D_NET *195 0.00143901
*CONN
*I *1112:D I *D sky130_fd_sc_hd__dfrtp_1
*I *1109:Y O *D sky130_fd_sc_hd__xnor2_1
*CAP
1 *1112:D 0.00067051
2 *1109:Y 0.00067051
3 *1112:D *1111:RESET_B 9.7992e-05
4 *1112:D *297:310 0
5 *1062:CLK *1112:D 0
*RES
1 *1109:Y *1112:D 38.3679 
*END

*D_NET *196 0.000612671
*CONN
*I *1115:A I *D sky130_fd_sc_hd__nand2_1
*I *1117:B1_N I *D sky130_fd_sc_hd__a21bo_1
*I *1113:Y O *D sky130_fd_sc_hd__nand3_1
*CAP
1 *1115:A 0.000171515
2 *1117:B1_N 3.11165e-05
3 *1113:Y 0
4 *196:4 0.000202632
5 *1115:A *1118:RESET_B 8.7457e-05
6 *1117:B1_N *1117:A2 4.15914e-05
7 *1117:B1_N *298:269 7.83587e-05
*RES
1 *1113:Y *196:4 9.3 
2 *196:4 *1117:B1_N 19.3357 
3 *196:4 *1115:A 11.8 
*END

*D_NET *197 0.00201256
*CONN
*I *1115:B I *D sky130_fd_sc_hd__nand2_1
*I *1117:A2 I *D sky130_fd_sc_hd__a21bo_1
*I *1114:X O *D sky130_fd_sc_hd__a21o_1
*CAP
1 *1115:B 0.000385629
2 *1117:A2 0.000211182
3 *1114:X 5.01881e-05
4 *197:6 0.000646999
5 *1115:B *1114:A2 2.51343e-06
6 *1115:B *298:265 2.97829e-05
7 *1117:A2 *1113:A 8.07951e-05
8 *1117:A2 *1113:B 0.000148903
9 *1117:A2 *1114:B1 7.83587e-05
10 *1117:A2 *1118:D 4.0903e-05
11 *1117:A2 *274:14 0
12 *1117:A2 *298:265 4.038e-06
13 *1117:A2 *298:269 3.25071e-05
14 *197:6 *1114:A2 8.25843e-06
15 *197:6 *1114:B1 3.69047e-06
16 *1117:A1 *1117:A2 9.90367e-05
17 *1117:B1_N *1117:A2 4.15914e-05
18 *194:12 *1115:B 0.000148182
*RES
1 *1114:X *197:6 9.83571 
2 *197:6 *1117:A2 24.0321 
3 *197:6 *1115:B 23.6571 
*END

*D_NET *198 0.000261091
*CONN
*I *1116:B I *D sky130_fd_sc_hd__xnor2_1
*I *1115:Y O *D sky130_fd_sc_hd__nand2_1
*CAP
1 *1116:B 9.67951e-05
2 *1115:Y 9.67951e-05
3 *1116:B *297:327 0
4 *1116:B *298:269 0
5 *194:12 *1116:B 6.75007e-05
*RES
1 *1115:Y *1116:B 29.5464 
*END

*D_NET *199 0.000744128
*CONN
*I *1114:B1 I *D sky130_fd_sc_hd__a21o_1
*I *1113:A I *D sky130_fd_sc_hd__nand3_1
*I *1118:Q O *D sky130_fd_sc_hd__dfrtp_1
*CAP
1 *1114:B1 0.000113062
2 *1113:A 5.42737e-05
3 *1118:Q 0
4 *199:6 0.000167336
5 *1113:A *1118:RESET_B 5.52238e-05
6 *1113:A *274:14 0
7 *1114:B1 *1113:B 3.90513e-05
8 *1114:B1 *1114:A2 9.90367e-05
9 *1114:B1 *274:14 0
10 *1117:A2 *1113:A 8.07951e-05
11 *1117:A2 *1114:B1 7.83587e-05
12 *1118:CLK *1113:A 5.33005e-05
13 *197:6 *1114:B1 3.69047e-06
*RES
1 *1118:Q *199:6 13.8 
2 *199:6 *1113:A 15.3714 
3 *199:6 *1114:B1 16.6929 
*END

*D_NET *200 0.00146039
*CONN
*I *1118:D I *D sky130_fd_sc_hd__dfrtp_1
*I *1117:X O *D sky130_fd_sc_hd__a21bo_1
*CAP
1 *1118:D 0.000573461
2 *1117:X 0.000573461
3 *1118:D *1118:RESET_B 4.85567e-05
4 *1118:D *274:14 0
5 *1117:A2 *1118:D 4.0903e-05
6 *1118:CLK *1118:D 0.000224013
*RES
1 *1117:X *1118:D 36.1893 
*END

*D_NET *201 0.00224099
*CONN
*I *1131:A1 I *D sky130_fd_sc_hd__a21bo_1
*I *1130:A I *D sky130_fd_sc_hd__xnor2_1
*I *1119:Q O *D sky130_fd_sc_hd__dfrtp_1
*CAP
1 *1131:A1 0.000179466
2 *1130:A 0.000191848
3 *1119:Q 0.000303226
4 *201:10 0.00067454
5 *1130:A *1128:A2 3.34295e-05
6 *1130:A *1129:B 0
7 *1130:A *297:327 0
8 *1131:A1 *1128:A1 0.000409207
9 *1131:A1 *1128:B1 8.30283e-05
10 *1131:A1 *1131:A2 0.000225616
11 *201:10 *1119:D 3.00198e-05
12 *201:10 *1128:A2 9.22948e-05
13 *201:10 *297:327 0
14 *201:10 *298:269 0
15 *194:12 *201:10 1.83136e-05
*RES
1 *1119:Q *201:10 18.925 
2 *201:10 *1130:A 16.9607 
3 *201:10 *1131:A1 19.3 
*END

*D_NET *202 0.000958763
*CONN
*I *1119:D I *D sky130_fd_sc_hd__dfrtp_1
*I *1116:Y O *D sky130_fd_sc_hd__xnor2_1
*CAP
1 *1119:D 0.000464372
2 *1116:Y 0.000464372
3 *201:10 *1119:D 3.00198e-05
*RES
1 *1116:Y *1119:D 26.1357 
*END

*D_NET *203 0.00155232
*CONN
*I *1124:B1_N I *D sky130_fd_sc_hd__a21bo_1
*I *1122:A I *D sky130_fd_sc_hd__nand2_1
*I *1120:Y O *D sky130_fd_sc_hd__nand3_1
*CAP
1 *1124:B1_N 0
2 *1122:A 8.96228e-05
3 *1120:Y 0.000221701
4 *203:10 0.000311323
5 *1122:A *204:12 5.83304e-05
6 *1122:A *280:12 0.000269521
7 *1122:A *283:10 0.00010964
8 *203:10 *1120:A 0.000188586
9 *203:10 *204:12 8.00806e-05
10 *203:10 *280:12 0.000169405
11 *203:10 *283:10 5.41054e-05
*RES
1 *1120:Y *203:10 19.05 
2 *203:10 *1122:A 17.2643 
3 *203:10 *1124:B1_N 13.8 
*END

*D_NET *204 0.00134166
*CONN
*I *1122:B I *D sky130_fd_sc_hd__nand2_1
*I *1124:A2 I *D sky130_fd_sc_hd__a21bo_1
*I *1121:X O *D sky130_fd_sc_hd__a21o_1
*CAP
1 *1122:B 7.41019e-05
2 *1124:A2 7.30797e-05
3 *1121:X 0.000109414
4 *204:12 0.000256596
5 *1122:B *280:12 0.000222878
6 *1122:B *281:10 0.000117378
7 *204:12 *283:10 0.000128161
8 *1122:A *204:12 5.83304e-05
9 *1124:A1 *1124:A2 9.71197e-05
10 *1124:A1 *204:12 0.000124521
11 *203:10 *204:12 8.00806e-05
*RES
1 *1121:X *204:12 21.3 
2 *204:12 *1124:A2 10.6571 
3 *204:12 *1122:B 21.1571 
*END

*D_NET *205 0.000972837
*CONN
*I *1123:B I *D sky130_fd_sc_hd__xnor2_1
*I *1122:Y O *D sky130_fd_sc_hd__nand2_1
*CAP
1 *1123:B 0.000377352
2 *1122:Y 0.000377352
3 *1123:B *1126:D 3.92854e-05
4 *1123:B *206:12 0.000178847
5 *1123:B *284:10 0
*RES
1 *1122:Y *1123:B 32.6536 
*END

*D_NET *206 0.00175253
*CONN
*I *1120:A I *D sky130_fd_sc_hd__nand3_1
*I *1121:B1 I *D sky130_fd_sc_hd__a21o_1
*I *1125:Q O *D sky130_fd_sc_hd__dfrtp_1
*CAP
1 *1120:A 5.97447e-05
2 *1121:B1 0
3 *1125:Q 0.000356528
4 *206:12 0.000416272
5 *1120:A *1121:A1 3.4855e-05
6 *1120:A *1121:A2 0.000115379
7 *1120:A *285:14 9.7049e-06
8 *206:12 *1126:D 5.01213e-05
9 *206:12 *283:10 0.000342495
10 *1123:B *206:12 0.000178847
11 *131:12 *206:12 0
12 *203:10 *1120:A 0.000188586
*RES
1 *1125:Q *206:12 25.675 
2 *206:12 *1121:B1 9.3 
3 *206:12 *1120:A 11.925 
*END

*D_NET *207 0.00090537
*CONN
*I *1125:D I *D sky130_fd_sc_hd__dfrtp_1
*I *1124:X O *D sky130_fd_sc_hd__a21bo_1
*CAP
1 *1125:D 0.000429808
2 *1124:X 0.000429808
3 *1125:D *281:10 4.57538e-05
4 *1125:D *297:122 0
*RES
1 *1124:X *1125:D 34.7071 
*END

*D_NET *208 0.00151168
*CONN
*I *1145:A1 I *D sky130_fd_sc_hd__a21bo_1
*I *1144:A I *D sky130_fd_sc_hd__xnor2_1
*I *1126:Q O *D sky130_fd_sc_hd__dfrtp_1
*CAP
1 *1145:A1 1.40568e-05
2 *1144:A 0.000193883
3 *1126:Q 0.000452859
4 *208:10 0.0006608
5 *1144:A *1141:A 9.10431e-06
6 *1144:A *1141:B 4.39724e-05
7 *1144:A *1142:A2 0
8 *1144:A *1145:B1_N 5.28778e-05
9 *1144:A *283:10 0
10 *1145:A1 *1142:B1 5.52238e-05
11 *1145:A1 *1145:A2 2.89016e-05
12 *208:10 *283:10 0
*RES
1 *1126:Q *208:10 19.2643 
2 *208:10 *1144:A 17.3179 
3 *208:10 *1145:A1 14.3357 
*END

*D_NET *209 0.00104028
*CONN
*I *1126:D I *D sky130_fd_sc_hd__dfrtp_1
*I *1123:Y O *D sky130_fd_sc_hd__xnor2_1
*CAP
1 *1126:D 0.000353291
2 *1123:Y 0.000353291
3 *1126:D *1126:RESET_B 8.94846e-05
4 *1126:D *283:10 0.000154801
5 *1126:D *284:10 0
6 *1123:B *1126:D 3.92854e-05
7 *206:12 *1126:D 5.01213e-05
*RES
1 *1123:Y *1126:D 35.8679 
*END

*D_NET *210 0.00130107
*CONN
*I *1131:B1_N I *D sky130_fd_sc_hd__a21bo_1
*I *1129:A I *D sky130_fd_sc_hd__nand2_1
*I *1127:Y O *D sky130_fd_sc_hd__nand3_1
*CAP
1 *1131:B1_N 3.72435e-05
2 *1129:A 0.000134307
3 *1127:Y 0.000218719
4 *210:6 0.000390269
5 *1129:A *1129:B 0.000117369
6 *1129:A *298:294 9.0105e-05
7 *1131:B1_N *1128:B1 4.27935e-05
8 *210:6 *1127:A 4.27338e-05
9 *210:6 *1128:B1 0.000227532
*RES
1 *1127:Y *210:6 12.3 
2 *210:6 *1129:A 21.7643 
3 *210:6 *1131:B1_N 9.83571 
*END

*D_NET *211 0.00100962
*CONN
*I *1129:B I *D sky130_fd_sc_hd__nand2_1
*I *1131:A2 I *D sky130_fd_sc_hd__a21bo_1
*I *1128:X O *D sky130_fd_sc_hd__a21o_1
*CAP
1 *1129:B 0.000134014
2 *1131:A2 5.368e-05
3 *1128:X 0
4 *211:4 0.000187694
5 *1131:A2 *1128:A1 2.28499e-05
6 *1131:A2 *1128:B1 0.000268403
7 *1129:A *1129:B 0.000117369
8 *1130:A *1129:B 0
9 *1131:A1 *1131:A2 0.000225616
*RES
1 *1128:X *211:4 9.3 
2 *211:4 *1131:A2 11.8893 
3 *211:4 *1129:B 21.1571 
*END

*D_NET *212 0.000368705
*CONN
*I *1130:B I *D sky130_fd_sc_hd__xnor2_1
*I *1129:Y O *D sky130_fd_sc_hd__nand2_1
*CAP
1 *1130:B 0.000107339
2 *1129:Y 0.000107339
3 *1130:B *1132:RESET_B 0.000154027
*RES
1 *1129:Y *1130:B 21.1893 
*END

*D_NET *213 0.00176078
*CONN
*I *1128:B1 I *D sky130_fd_sc_hd__a21o_1
*I *1127:A I *D sky130_fd_sc_hd__nand3_1
*I *1132:Q O *D sky130_fd_sc_hd__dfrtp_1
*CAP
1 *1128:B1 0.000148087
2 *1127:A 2.86169e-05
3 *1132:Q 0.000212206
4 *213:12 0.00038891
5 *1127:A *1127:C 5.52238e-05
6 *1127:A *1128:A1 2.14658e-05
7 *1128:B1 *1127:C 0
8 *1128:B1 *1128:A1 1.02936e-05
9 *213:12 *1127:C 3.17148e-05
10 *213:12 *1128:A1 6.8646e-06
11 *213:12 *1132:D 8.00806e-05
12 *213:12 *1132:RESET_B 3.67968e-05
13 *213:12 *298:294 7.60306e-05
14 *1131:A1 *1128:B1 8.30283e-05
15 *1131:A2 *1128:B1 0.000268403
16 *1131:B1_N *1128:B1 4.27935e-05
17 *210:6 *1127:A 4.27338e-05
18 *210:6 *1128:B1 0.000227532
*RES
1 *1132:Q *213:12 22.0143 
2 *213:12 *1127:A 10.2464 
3 *213:12 *1128:B1 13.9786 
*END

*D_NET *214 0.000796317
*CONN
*I *1132:D I *D sky130_fd_sc_hd__dfrtp_1
*I *1131:X O *D sky130_fd_sc_hd__a21bo_1
*CAP
1 *1132:D 0.000349196
2 *1131:X 0.000349196
3 *1132:D *298:294 1.78447e-05
4 *213:12 *1132:D 8.00806e-05
*RES
1 *1131:X *1132:D 33.8857 
*END

*D_NET *215 0.00198494
*CONN
*I *1138:A1 I *D sky130_fd_sc_hd__a21bo_1
*I *1137:A I *D sky130_fd_sc_hd__xnor2_1
*I *1133:Q O *D sky130_fd_sc_hd__dfrtp_1
*CAP
1 *1138:A1 2.12761e-05
2 *1137:A 0.000107968
3 *1133:Q 0.000314732
4 *215:10 0.000443977
5 *1137:A *1224:A 0.000128146
6 *1137:A *217:10 4.46186e-06
7 *1138:A1 *1138:A2 0.00014285
8 *215:10 *1135:A1 0.000446603
9 *215:10 *1139:D 0
10 *215:10 *1139:RESET_B 4.28984e-05
11 *215:10 *217:10 9.01334e-05
12 *215:10 *218:12 9.90431e-05
13 *40:39 *1138:A1 0.00014285
*RES
1 *1133:Q *215:10 21.1036 
2 *215:10 *1137:A 16.05 
3 *215:10 *1138:A1 15.1571 
*END

*D_NET *216 0.00163805
*CONN
*I *1133:D I *D sky130_fd_sc_hd__dfrtp_1
*I *1130:Y O *D sky130_fd_sc_hd__xnor2_1
*CAP
1 *1133:D 0.000723128
2 *1130:Y 0.000723128
3 *1133:D *1132:RESET_B 0.000141729
4 *1133:CLK *1133:D 5.00645e-05
5 *40:16 *1133:D 0
*RES
1 *1130:Y *1133:D 38.0286 
*END

*D_NET *217 0.000762541
*CONN
*I *1136:A I *D sky130_fd_sc_hd__nand2_1
*I *1138:B1_N I *D sky130_fd_sc_hd__a21bo_1
*I *1134:Y O *D sky130_fd_sc_hd__nand3_1
*CAP
1 *1136:A 0
2 *1138:B1_N 8.95943e-06
3 *1134:Y 0.000169292
4 *217:10 0.000178252
5 *1138:B1_N *1138:A2 5.71472e-05
6 *217:10 *1134:A 1.9643e-05
7 *217:10 *1135:A1 6.97972e-05
8 *217:10 *1135:B1 2.10446e-05
9 *217:10 *1139:D 0
10 *217:10 *218:12 7.83366e-05
11 *217:10 *298:294 1.02504e-05
12 *1137:A *217:10 4.46186e-06
13 *40:39 *1138:B1_N 5.52238e-05
14 *215:10 *217:10 9.01334e-05
*RES
1 *1134:Y *217:10 22.675 
2 *217:10 *1138:B1_N 9.83571 
3 *217:10 *1136:A 9.3 
*END

*D_NET *218 0.00130662
*CONN
*I *1136:B I *D sky130_fd_sc_hd__nand2_1
*I *1138:A2 I *D sky130_fd_sc_hd__a21bo_1
*I *1135:X O *D sky130_fd_sc_hd__a21o_1
*CAP
1 *1136:B 0
2 *1138:A2 0.000144565
3 *1135:X 0.000161935
4 *218:12 0.000306501
5 *1138:A2 *1224:A 0.000227526
6 *1138:A1 *1138:A2 0.00014285
7 *1138:B1_N *1138:A2 5.71472e-05
8 *40:39 *1138:A2 8.87196e-05
9 *215:10 *218:12 9.90431e-05
10 *217:10 *218:12 7.83366e-05
*RES
1 *1135:X *218:12 21.1929 
2 *218:12 *1138:A2 13.5679 
3 *218:12 *1136:B 9.3 
*END

*D_NET *219 0.000492081
*CONN
*I *1137:B I *D sky130_fd_sc_hd__xnor2_1
*I *1136:Y O *D sky130_fd_sc_hd__nand2_1
*CAP
1 *1137:B 0.000170374
2 *1136:Y 0.000170374
3 *1137:B *1224:A 0.000151333
*RES
1 *1136:Y *1137:B 30.9036 
*END

*D_NET *220 0.000858202
*CONN
*I *1134:A I *D sky130_fd_sc_hd__nand3_1
*I *1135:B1 I *D sky130_fd_sc_hd__a21o_1
*I *1139:Q O *D sky130_fd_sc_hd__dfrtp_1
*CAP
1 *1134:A 0.000148378
2 *1135:B1 5.37232e-05
3 *1139:Q 0
4 *220:6 0.000202101
5 *1134:A *1134:C 5.52238e-05
6 *1134:A *1135:A2 0
7 *1134:A *298:294 2.61337e-05
8 *1134:A *298:309 4.43256e-05
9 *1135:B1 *1135:A1 0.000144773
10 *1135:B1 *1135:A2 0
11 *1135:B1 *1139:RESET_B 0.000142856
12 *217:10 *1134:A 1.9643e-05
13 *217:10 *1135:B1 2.10446e-05
*RES
1 *1139:Q *220:6 13.8 
2 *220:6 *1135:B1 15.8893 
3 *220:6 *1134:A 16.8 
*END

*D_NET *221 0.000461152
*CONN
*I *1139:D I *D sky130_fd_sc_hd__dfrtp_1
*I *1138:X O *D sky130_fd_sc_hd__a21bo_1
*CAP
1 *1139:D 0.000230576
2 *1138:X 0.000230576
3 *40:39 *1139:D 0
4 *215:10 *1139:D 0
5 *217:10 *1139:D 0
*RES
1 *1138:X *1139:D 31.4214 
*END

*D_NET *222 0.00255557
*CONN
*I *1140:D I *D sky130_fd_sc_hd__dfrtp_1
*I *1137:Y O *D sky130_fd_sc_hd__xnor2_1
*CAP
1 *1140:D 0.00090104
2 *1137:Y 0.00090104
3 *1140:D *1140:RESET_B 0.000343919
4 *1140:D *297:357 8.25843e-06
5 *1041:CLK *1140:D 1.93007e-05
6 *1041:D *1140:D 6.05161e-06
7 *1140:CLK *1140:D 0.000375962
*RES
1 *1137:Y *1140:D 41.6714 
*END

*D_NET *223 0.00102944
*CONN
*I *1143:A I *D sky130_fd_sc_hd__nand2_1
*I *1145:B1_N I *D sky130_fd_sc_hd__a21bo_1
*I *1141:Y O *D sky130_fd_sc_hd__nand3_1
*CAP
1 *1143:A 0
2 *1145:B1_N 0.000114078
3 *1141:Y 0.000206213
4 *223:10 0.000320291
5 *1145:B1_N *1142:A2 0.000123295
6 *1145:B1_N *1144:B 5.52302e-05
7 *1145:B1_N *1147:D 1.65558e-05
8 *223:10 *1141:B 3.18676e-05
9 *223:10 *1142:A2 3.57315e-05
10 *223:10 *1144:B 7.32955e-05
11 *1144:A *1145:B1_N 5.28778e-05
*RES
1 *1141:Y *223:10 13.5679 
2 *223:10 *1145:B1_N 21.3893 
3 *223:10 *1143:A 9.3 
*END

*D_NET *224 0.00135756
*CONN
*I *1143:B I *D sky130_fd_sc_hd__nand2_1
*I *1145:A2 I *D sky130_fd_sc_hd__a21bo_1
*I *1142:X O *D sky130_fd_sc_hd__a21o_1
*CAP
1 *1143:B 0.000120026
2 *1145:A2 0.000133412
3 *1142:X 4.79547e-05
4 *224:6 0.000301393
5 *1143:B *1141:B 3.17148e-05
6 *1143:B *1142:A2 2.05938e-05
7 *1143:B *1147:D 6.26673e-05
8 *1145:A2 *1141:B 0.000353079
9 *1145:A2 *1142:A1 2.89016e-05
10 *1145:A2 *1142:B1 0.000136854
11 *224:6 *1142:B1 3.69047e-06
12 *1145:A1 *1145:A2 2.89016e-05
13 *33:15 *1143:B 6.35892e-05
14 *33:15 *224:6 2.47833e-05
*RES
1 *1142:X *224:6 10.2464 
2 *224:6 *1145:A2 13.55 
3 *224:6 *1143:B 21.0857 
*END

*D_NET *225 0.000395898
*CONN
*I *1144:B I *D sky130_fd_sc_hd__xnor2_1
*I *1143:Y O *D sky130_fd_sc_hd__nand2_1
*CAP
1 *1144:B 4.83076e-05
2 *1143:Y 4.83076e-05
3 *1144:B *1142:A2 7.17136e-05
4 *1144:B *1147:D 9.90431e-05
5 *1145:B1_N *1144:B 5.52302e-05
6 *223:10 *1144:B 7.32955e-05
*RES
1 *1143:Y *1144:B 20.7786 
*END

*D_NET *226 0.00176896
*CONN
*I *1142:B1 I *D sky130_fd_sc_hd__a21o_1
*I *1141:A I *D sky130_fd_sc_hd__nand3_1
*I *1146:Q O *D sky130_fd_sc_hd__dfrtp_1
*CAP
1 *1142:B1 0.000191111
2 *1141:A 8.39458e-05
3 *1146:Q 6.95383e-05
4 *226:6 0.000344595
5 *1141:A *1141:B 0.000125731
6 *1141:A *283:10 8.06331e-05
7 *1142:B1 *1141:B 2.27304e-05
8 *1142:B1 *1142:A1 5.52238e-05
9 *1142:B1 *1146:D 1.33343e-05
10 *226:6 *1146:D 0.00014183
11 *1144:A *1141:A 9.10431e-06
12 *1145:A1 *1142:B1 5.52238e-05
13 *1145:A2 *1142:B1 0.000136854
14 *33:15 *1142:B1 0.000435417
15 *224:6 *1142:B1 3.69047e-06
*RES
1 *1146:Q *226:6 10.6571 
2 *226:6 *1141:A 20.675 
3 *226:6 *1142:B1 15.7821 
*END

*D_NET *227 0.0011833
*CONN
*I *1146:D I *D sky130_fd_sc_hd__dfrtp_1
*I *1145:X O *D sky130_fd_sc_hd__a21bo_1
*CAP
1 *1146:D 0.000346939
2 *1145:X 0.000346939
3 *1146:D *1146:RESET_B 5.25816e-05
4 *1142:B1 *1146:D 1.33343e-05
5 *1146:CLK *1146:D 3.18676e-05
6 *33:15 *1146:D 0.00024981
7 *226:6 *1146:D 0.00014183
*RES
1 *1145:X *1146:D 26.5286 
*END

*D_NET *228 0.0018869
*CONN
*I *1151:A I *D sky130_fd_sc_hd__xnor2_1
*I *1152:A1 I *D sky130_fd_sc_hd__a21bo_1
*I *1147:Q O *D sky130_fd_sc_hd__dfrtp_1
*CAP
1 *1151:A 0.000475229
2 *1152:A1 0.00018963
3 *1147:Q 0
4 *228:4 0.000664859
5 *1151:A *1147:RESET_B 0
6 *1151:A *1150:A 0
7 *1151:A *1152:A2 0
8 *1151:A *297:76 1.72798e-05
9 *1152:A1 *1150:A 5.71472e-05
10 *1152:A1 *1151:B 3.15101e-05
11 *1152:A1 *1152:A2 8.18783e-05
12 *1152:A1 *230:12 5.52302e-05
13 *1152:A1 *297:76 0.000314139
*RES
1 *1147:Q *228:4 9.3 
2 *228:4 *1152:A1 14.3714 
3 *228:4 *1151:A 24.6929 
*END

*D_NET *229 0.00144954
*CONN
*I *1147:D I *D sky130_fd_sc_hd__dfrtp_1
*I *1144:Y O *D sky130_fd_sc_hd__xnor2_1
*CAP
1 *1147:D 0.000608024
2 *1144:Y 0.000608024
3 *1147:D *1142:A2 5.52302e-05
4 *1143:B *1147:D 6.26673e-05
5 *1144:B *1147:D 9.90431e-05
6 *1145:B1_N *1147:D 1.65558e-05
7 *33:15 *1147:D 0
*RES
1 *1144:Y *1147:D 39.1 
*END

*D_NET *230 0.000973727
*CONN
*I *1150:A I *D sky130_fd_sc_hd__nand2_1
*I *1152:B1_N I *D sky130_fd_sc_hd__a21bo_1
*I *1148:Y O *D sky130_fd_sc_hd__nand3_1
*CAP
1 *1150:A 2.69596e-05
2 *1152:B1_N 0
3 *1148:Y 0.000128101
4 *230:12 0.00015506
5 *1150:A *1152:A2 3.01979e-05
6 *230:12 *1148:C 7.83659e-05
7 *230:12 *1152:A2 3.18676e-05
8 *230:12 *231:12 0
9 *230:12 *297:76 7.83587e-05
10 *230:12 *297:88 7.39741e-05
11 *230:12 *297:97 0.000117189
12 *230:12 *298:429 0.000141277
13 *1151:A *1150:A 0
14 *1152:A1 *1150:A 5.71472e-05
15 *1152:A1 *230:12 5.52302e-05
*RES
1 *1148:Y *230:12 22.9071 
2 *230:12 *1152:B1_N 9.3 
3 *230:12 *1150:A 10.2643 
*END

*D_NET *231 0.00111771
*CONN
*I *1150:B I *D sky130_fd_sc_hd__nand2_1
*I *1152:A2 I *D sky130_fd_sc_hd__a21bo_1
*I *1149:X O *D sky130_fd_sc_hd__a21o_1
*CAP
1 *1150:B 0
2 *1152:A2 0.000205659
3 *1149:X 0.000176813
4 *231:12 0.000382472
5 *1152:A2 *1151:B 5.71472e-05
6 *231:12 *281:10 7.50505e-05
7 *231:12 *297:76 2.34204e-05
8 *231:12 *297:88 2.8266e-06
9 *231:12 *298:429 0
10 *231:12 *298:439 5.03772e-05
11 *1150:A *1152:A2 3.01979e-05
12 *1151:A *1152:A2 0
13 *1152:A1 *1152:A2 8.18783e-05
14 *230:12 *1152:A2 3.18676e-05
15 *230:12 *231:12 0
*RES
1 *1149:X *231:12 21.1929 
2 *231:12 *1152:A2 13.5679 
3 *231:12 *1150:B 9.3 
*END

*D_NET *232 0.00121626
*CONN
*I *1151:B I *D sky130_fd_sc_hd__xnor2_1
*I *1150:Y O *D sky130_fd_sc_hd__nand2_1
*CAP
1 *1151:B 0.00035505
2 *1150:Y 0.00035505
3 *1151:B *280:12 7.60306e-05
4 *1151:B *281:10 0.000150618
5 *1152:A1 *1151:B 3.15101e-05
6 *1152:A2 *1151:B 5.71472e-05
7 *45:92 *1151:B 0.000190858
*RES
1 *1150:Y *1151:B 34.725 
*END

*D_NET *233 0.000875573
*CONN
*I *1148:A I *D sky130_fd_sc_hd__nand3_1
*I *1149:B1 I *D sky130_fd_sc_hd__a21o_1
*I *1153:Q O *D sky130_fd_sc_hd__dfrtp_1
*CAP
1 *1148:A 0.000130723
2 *1149:B1 8.49753e-05
3 *1153:Q 0
4 *233:4 0.000215698
5 *1148:A *1148:B 0.00014285
6 *1148:A *281:10 0.000125724
7 *1148:A *297:97 0
8 *1149:B1 *298:439 0.000175603
*RES
1 *1153:Q *233:4 9.3 
2 *233:4 *1149:B1 11.3893 
3 *233:4 *1148:A 21.3 
*END

*D_NET *234 0.000526842
*CONN
*I *1153:D I *D sky130_fd_sc_hd__dfrtp_1
*I *1152:X O *D sky130_fd_sc_hd__a21bo_1
*CAP
1 *1153:D 0.00018109
2 *1152:X 0.00018109
3 *1153:D *1182:RESET_B 0.000122091
4 *1153:D *279:10 4.25716e-05
5 *1153:D *298:429 0
*RES
1 *1152:X *1153:D 31.4214 
*END

*D_NET *235 0.00123844
*CONN
*I *1159:A1 I *D sky130_fd_sc_hd__a21bo_1
*I *1158:A I *D sky130_fd_sc_hd__xnor2_1
*I *1154:Q O *D sky130_fd_sc_hd__dfrtp_1
*CAP
1 *1159:A1 6.00135e-05
2 *1158:A 0.000219734
3 *1154:Q 5.18587e-05
4 *235:8 0.000331607
5 *1158:A *1161:D 7.43578e-06
6 *1158:A *238:12 5.30637e-06
7 *1158:A *280:14 0.000226021
8 *1159:A1 *297:56 0.0001399
9 *235:8 *1159:B1_N 8.00806e-05
10 *235:8 *280:14 0.000116481
11 *235:8 *297:56 0
*RES
1 *1154:Q *235:8 15.4429 
2 *235:8 *1158:A 18.425 
3 *235:8 *1159:A1 15.1571 
*END

*D_NET *236 0.00048722
*CONN
*I *1154:D I *D sky130_fd_sc_hd__dfrtp_1
*I *1151:Y O *D sky130_fd_sc_hd__xnor2_1
*CAP
1 *1154:D 0.000179927
2 *1151:Y 0.000179927
3 *1154:CLK *1154:D 5.5782e-05
4 *45:92 *1154:D 7.15846e-05
*RES
1 *1151:Y *1154:D 31.3143 
*END

*D_NET *237 0.000957466
*CONN
*I *1159:B1_N I *D sky130_fd_sc_hd__a21bo_1
*I *1157:A I *D sky130_fd_sc_hd__nand2_1
*I *1155:Y O *D sky130_fd_sc_hd__nand3_1
*CAP
1 *1159:B1_N 0.000190077
2 *1157:A 0
3 *1155:Y 0.000108373
4 *237:8 0.000298449
5 *1159:B1_N *280:14 2.58997e-05
6 *1159:B1_N *281:14 0.00014285
7 *1159:B1_N *297:56 4.57445e-05
8 *237:8 *1155:A 2.61378e-05
9 *237:8 *281:14 3.98547e-05
10 *235:8 *1159:B1_N 8.00806e-05
*RES
1 *1155:Y *237:8 11.3893 
2 *237:8 *1157:A 9.3 
3 *237:8 *1159:B1_N 22.5321 
*END

*D_NET *238 0.00130305
*CONN
*I *1159:A2 I *D sky130_fd_sc_hd__a21bo_1
*I *1157:B I *D sky130_fd_sc_hd__nand2_1
*I *1156:X O *D sky130_fd_sc_hd__a21o_1
*CAP
1 *1159:A2 0
2 *1157:B 0.000135914
3 *1156:X 0.000179703
4 *238:12 0.000315617
5 *1157:B *1158:B 3.57844e-05
6 *1157:B *1160:D 5.33005e-05
7 *1157:B *1160:RESET_B 5.33005e-05
8 *1157:B *280:14 0
9 *1157:B *281:10 0
10 *1157:B *297:44 5.59013e-05
11 *1157:B *297:56 8.17274e-05
12 *238:12 *1158:B 0.000151333
13 *238:12 *280:14 5.35423e-05
14 *1158:A *238:12 5.30637e-06
15 *45:10 *1157:B 0.000125731
16 *45:16 *1157:B 5.58941e-05
*RES
1 *1156:X *238:12 21.6036 
2 *238:12 *1157:B 21.9071 
3 *238:12 *1159:A2 9.3 
*END

*D_NET *239 0.000655772
*CONN
*I *1158:B I *D sky130_fd_sc_hd__xnor2_1
*I *1157:Y O *D sky130_fd_sc_hd__nand2_1
*CAP
1 *1158:B 0.000149973
2 *1157:Y 0.000149973
3 *1158:B *280:14 0
4 *1158:B *297:44 0.000168709
5 *1157:B *1158:B 3.57844e-05
6 *238:12 *1158:B 0.000151333
*RES
1 *1157:Y *1158:B 31.6714 
*END

*D_NET *240 0.00143384
*CONN
*I *1155:A I *D sky130_fd_sc_hd__nand3_1
*I *1156:B1 I *D sky130_fd_sc_hd__a21o_1
*I *1160:Q O *D sky130_fd_sc_hd__dfrtp_1
*CAP
1 *1155:A 0.000140751
2 *1156:B1 3.99324e-05
3 *1160:Q 8.31973e-05
4 *240:8 0.00026388
5 *1155:A *1156:A1 0.00021625
6 *1155:A *281:14 2.59355e-05
7 *1155:A *298:403 7.79781e-06
8 *1155:A *298:429 1.19402e-05
9 *1156:B1 *1156:A1 0.000153054
10 *240:8 *1160:D 4.58194e-05
11 *45:10 *1155:A 0.00013966
12 *45:16 *1155:A 0.000126446
13 *45:16 *1156:B1 0.00015304
14 *237:8 *1155:A 2.61378e-05
*RES
1 *1160:Q *240:8 14.7464 
2 *240:8 *1156:B1 15.7464 
3 *240:8 *1155:A 18.2286 
*END

*D_NET *241 0.00105115
*CONN
*I *1160:D I *D sky130_fd_sc_hd__dfrtp_1
*I *1159:X O *D sky130_fd_sc_hd__a21bo_1
*CAP
1 *1160:D 0.000335108
2 *1159:X 0.000335108
3 *1160:D *1160:RESET_B 5.66258e-05
4 *1157:B *1160:D 5.33005e-05
5 *1160:CLK *1160:D 3.18676e-05
6 *45:55 *1160:D 0.000193319
7 *240:8 *1160:D 4.58194e-05
*RES
1 *1159:X *1160:D 25.7071 
*END

*D_NET *242 0.00347752
*CONN
*I *1165:A I *D sky130_fd_sc_hd__xnor2_1
*I *1166:A1 I *D sky130_fd_sc_hd__a21bo_1
*I *1161:Q O *D sky130_fd_sc_hd__dfrtp_1
*CAP
1 *1165:A 0
2 *1166:A1 0.000303587
3 *1161:Q 0.000711717
4 *242:12 0.0010153
5 *1166:A1 *1162:C 0.000202001
6 *1166:A1 *1166:A2 0.000198317
7 *1166:A1 *1166:B1_N 5.59013e-05
8 *1166:A1 *1167:RESET_B 0.000171148
9 *1166:A1 *249:16 3.48705e-05
10 *242:12 *1161:RESET_B 0.00043993
11 *242:12 *1162:B 0.000126439
12 *242:12 *1165:B 0.000128161
13 *1167:CLK *1166:A1 9.0145e-05
*RES
1 *1161:Q *242:12 28.6929 
2 *242:12 *1166:A1 25.8714 
3 *242:12 *1165:A 9.3 
*END

*D_NET *243 0.000718603
*CONN
*I *1161:D I *D sky130_fd_sc_hd__dfrtp_1
*I *1158:Y O *D sky130_fd_sc_hd__xnor2_1
*CAP
1 *1161:D 0.000355584
2 *1158:Y 0.000355584
3 *1161:D *280:14 0
4 *1158:A *1161:D 7.43578e-06
*RES
1 *1158:Y *1161:D 33.0286 
*END

*D_NET *244 0.00159802
*CONN
*I *1164:A I *D sky130_fd_sc_hd__nand2_1
*I *1166:B1_N I *D sky130_fd_sc_hd__a21bo_1
*I *1162:Y O *D sky130_fd_sc_hd__nand3_1
*CAP
1 *1164:A 0.000226983
2 *1166:B1_N 0.000132311
3 *1162:Y 0
4 *244:4 0.000359294
5 *1164:A *1161:RESET_B 5.52302e-05
6 *1164:A *1162:B 5.2514e-05
7 *1164:A *1165:B 0.000150625
8 *1164:A *249:16 9.25014e-06
9 *1164:A *297:10 0.000148903
10 *1164:A *297:20 0.000125731
11 *1164:A *297:44 5.58941e-05
12 *1166:B1_N *1162:A 1.3142e-05
13 *1166:B1_N *1162:B 1.39841e-05
14 *1166:B1_N *1162:C 9.22103e-06
15 *1166:B1_N *1166:A2 8.50152e-05
16 *1161:CLK *1164:A 5.52302e-05
17 *1166:A1 *1166:B1_N 5.59013e-05
18 *1168:CLK *1164:A 4.27437e-05
19 *1168:CLK *1166:B1_N 6.05161e-06
*RES
1 *1162:Y *244:4 9.3 
2 *244:4 *1166:B1_N 20.3893 
3 *244:4 *1164:A 23.8536 
*END

*D_NET *245 0.00159581
*CONN
*I *1164:B I *D sky130_fd_sc_hd__nand2_1
*I *1166:A2 I *D sky130_fd_sc_hd__a21bo_1
*I *1163:X O *D sky130_fd_sc_hd__a21o_1
*CAP
1 *1164:B 5.17901e-05
2 *1166:A2 0.000341804
3 *1163:X 0
4 *245:4 0.000393594
5 *1164:B *1161:RESET_B 4.81734e-05
6 *1164:B *1163:A1 3.99614e-06
7 *1166:A2 *1162:A 0.000218019
8 *1166:A2 *1162:C 8.87591e-05
9 *1166:A2 *1163:A1 5.74499e-06
10 *1166:A2 *1163:B1 9.40438e-05
11 *1166:A2 *249:16 1.32552e-05
12 *1161:CLK *1164:B 5.33005e-05
13 *1166:A1 *1166:A2 0.000198317
14 *1166:B1_N *1166:A2 8.50152e-05
*RES
1 *1163:X *245:4 9.3 
2 *245:4 *1166:A2 26.0321 
3 *245:4 *1164:B 10.5679 
*END

*D_NET *246 0.000381613
*CONN
*I *1165:B I *D sky130_fd_sc_hd__xnor2_1
*I *1164:Y O *D sky130_fd_sc_hd__nand2_1
*CAP
1 *1165:B 4.48425e-05
2 *1164:Y 4.48425e-05
3 *1165:B *1162:B 1.3142e-05
4 *1164:A *1165:B 0.000150625
5 *242:12 *1165:B 0.000128161
*RES
1 *1164:Y *1165:B 29.5464 
*END

*D_NET *247 0.00137555
*CONN
*I *1163:B1 I *D sky130_fd_sc_hd__a21o_1
*I *1162:A I *D sky130_fd_sc_hd__nand3_1
*I *1167:Q O *D sky130_fd_sc_hd__dfrtp_1
*CAP
1 *1163:B1 7.7643e-05
2 *1162:A 0.00013761
3 *1167:Q 8.31973e-05
4 *247:8 0.00029845
5 *1162:A *1162:C 0
6 *1162:A *297:10 1.18064e-05
7 *1163:B1 *1162:C 0
8 *1163:B1 *1163:A1 2.89016e-05
9 *247:8 *1167:RESET_B 4.58194e-05
10 *1166:A2 *1162:A 0.000218019
11 *1166:A2 *1163:B1 9.40438e-05
12 *1166:B1_N *1162:A 1.3142e-05
13 *1168:CLK *1162:A 0.000125717
14 *45:18 *1162:A 0.000117196
15 *45:18 *1163:B1 0.00012401
*RES
1 *1167:Q *247:8 14.7464 
2 *247:8 *1162:A 17.8 
3 *247:8 *1163:B1 15.9786 
*END

*D_NET *248 0.000543131
*CONN
*I *1167:D I *D sky130_fd_sc_hd__dfrtp_1
*I *1166:X O *D sky130_fd_sc_hd__a21bo_1
*CAP
1 *1167:D 0.00015567
2 *1166:X 0.00015567
3 *1167:D *1162:C 0
4 *1167:D *279:16 0.000105163
5 *1167:CLK *1167:D 0.000126629
*RES
1 *1166:X *1167:D 31.4214 
*END

*D_NET *249 0.00553525
*CONN
*I *1172:A I *D sky130_fd_sc_hd__xnor2_1
*I *1173:A1 I *D sky130_fd_sc_hd__a21bo_1
*I *1168:Q O *D sky130_fd_sc_hd__dfrtp_1
*CAP
1 *1172:A 0.000177987
2 *1173:A1 0
3 *1168:Q 0.00203005
4 *249:18 0.000313225
5 *249:16 0.00216528
6 *1172:A *1174:RESET_B 7.26935e-05
7 *249:16 *1162:B 5.56703e-05
8 *249:16 *1162:C 0.000274288
9 *249:16 *1168:RESET_B 0.000179731
10 *249:16 *297:8 1.08359e-05
11 *249:16 *297:10 3.67405e-05
12 *249:18 *1174:D 0
13 *249:18 *1174:RESET_B 8.81343e-05
14 *1164:A *249:16 9.25014e-06
15 *1166:A1 *249:16 3.48705e-05
16 *1166:A2 *249:16 1.32552e-05
17 *1168:CLK *249:16 7.3237e-05
*RES
1 *1168:Q *249:16 48.925 
2 *249:16 *249:18 3.16071 
3 *249:18 *1173:A1 13.8 
4 *249:18 *1172:A 17.3 
*END

*D_NET *250 0.000379775
*CONN
*I *1168:D I *D sky130_fd_sc_hd__dfrtp_1
*I *1165:Y O *D sky130_fd_sc_hd__xnor2_1
*CAP
1 *1168:D 0.000189887
2 *1165:Y 0.000189887
3 *1168:D *1162:B 0
*RES
1 *1165:Y *1168:D 30.1893 
*END

*D_NET *251 0.000993773
*CONN
*I *1171:A I *D sky130_fd_sc_hd__nand2_1
*I *1173:B1_N I *D sky130_fd_sc_hd__a21bo_1
*I *1169:Y O *D sky130_fd_sc_hd__nand3_1
*CAP
1 *1171:A 0.000143195
2 *1173:B1_N 9.76259e-05
3 *1169:Y 0.000117593
4 *251:6 0.000358414
5 *1171:A *1171:B 6.74911e-05
6 *1171:A *1174:RESET_B 0
7 *1171:A *254:10 5.83304e-05
8 *1171:A *298:496 0
9 *1173:B1_N *1170:A2 0
10 *1173:B1_N *1173:A2 3.18676e-05
11 *1173:B1_N *252:6 1.32552e-05
12 *251:6 *1169:A 4.88546e-05
13 *251:6 *1170:A2 5.71472e-05
*RES
1 *1169:Y *251:6 11.4786 
2 *251:6 *1173:B1_N 11.0857 
3 *251:6 *1171:A 21.1571 
*END

*D_NET *252 0.000754579
*CONN
*I *1171:B I *D sky130_fd_sc_hd__nand2_1
*I *1173:A2 I *D sky130_fd_sc_hd__a21bo_1
*I *1170:X O *D sky130_fd_sc_hd__a21o_1
*CAP
1 *1171:B 5.15099e-05
2 *1173:A2 0.000189438
3 *1170:X 3.82857e-05
4 *252:6 0.000279234
5 *1171:B *1174:RESET_B 6.97972e-05
6 *1173:A2 *1169:A 1.3701e-05
7 *1171:A *1171:B 6.74911e-05
8 *1173:B1_N *1173:A2 3.18676e-05
9 *1173:B1_N *252:6 1.32552e-05
*RES
1 *1170:X *252:6 9.83571 
2 *252:6 *1173:A2 12.6214 
3 *252:6 *1171:B 19.9429 
*END

*D_NET *253 0.000181126
*CONN
*I *1172:B I *D sky130_fd_sc_hd__xnor2_1
*I *1171:Y O *D sky130_fd_sc_hd__nand2_1
*CAP
1 *1172:B 9.0563e-05
2 *1171:Y 9.0563e-05
*RES
1 *1171:Y *1172:B 19.9571 
*END

*D_NET *254 0.000660659
*CONN
*I *1169:A I *D sky130_fd_sc_hd__nand3_1
*I *1170:B1 I *D sky130_fd_sc_hd__a21o_1
*I *1174:Q O *D sky130_fd_sc_hd__dfrtp_1
*CAP
1 *1169:A 8.07893e-05
2 *1170:B1 0
3 *1174:Q 0.000108264
4 *254:10 0.000189053
5 *1169:A *1170:A1 0.000111383
6 *1169:A *1170:A2 5.02831e-05
7 *254:10 *1174:RESET_B 0
8 *254:10 *298:496 0
9 *1171:A *254:10 5.83304e-05
10 *1173:A2 *1169:A 1.3701e-05
11 *251:6 *1169:A 4.88546e-05
*RES
1 *1174:Q *254:10 20.2464 
2 *254:10 *1170:B1 9.3 
3 *254:10 *1169:A 11.925 
*END

*D_NET *255 0.000577779
*CONN
*I *1174:D I *D sky130_fd_sc_hd__dfrtp_1
*I *1173:X O *D sky130_fd_sc_hd__a21bo_1
*CAP
1 *1174:D 0.000264897
2 *1173:X 0.000264897
3 *1174:CLK *1174:D 4.79842e-05
4 *249:18 *1174:D 0
*RES
1 *1173:X *1174:D 31.4214 
*END

*D_NET *256 0.0031489
*CONN
*I *1179:A I *D sky130_fd_sc_hd__xnor2_1
*I *1180:A1 I *D sky130_fd_sc_hd__a21bo_1
*I *1175:Q O *D sky130_fd_sc_hd__dfrtp_1
*CAP
1 *1179:A 0.000352865
2 *1180:A1 0.000255605
3 *1175:Q 9.35517e-05
4 *256:10 0.000702022
5 *1179:A *1014:RESET_B 0.000313192
6 *1179:A *1178:B 0.000191877
7 *1179:A *1179:B 0.000314816
8 *1179:A *1180:A2 0.000397141
9 *1179:A *297:425 0.000181804
10 *1180:A1 *1174:RESET_B 0.000195555
11 *1180:A1 *1175:RESET_B 1.58163e-05
12 *1180:A1 *1180:A2 9.90367e-05
13 *1180:A1 *1181:D 0
14 *1180:A1 *297:425 2.31791e-05
15 *256:10 *1176:A 1.24368e-05
16 *953:A *1179:A 0
17 *1182:CLK *1179:A 0
18 *39:51 *1179:A 0
19 *44:85 *1179:A 0
*RES
1 *1175:Q *256:10 10.8 
2 *256:10 *1180:A1 23.4607 
3 *256:10 *1179:A 30.675 
*END

*D_NET *257 0.000940884
*CONN
*I *1175:D I *D sky130_fd_sc_hd__dfrtp_1
*I *1172:Y O *D sky130_fd_sc_hd__xnor2_1
*CAP
1 *1175:D 0.000379783
2 *1172:Y 0.000379783
3 *1175:D *1181:D 3.2534e-05
4 *44:16 *1175:D 6.71889e-05
5 *44:18 *1175:D 8.15939e-05
*RES
1 *1172:Y *1175:D 34.6714 
*END

*D_NET *258 0.00225566
*CONN
*I *1178:A I *D sky130_fd_sc_hd__nand2_1
*I *1180:B1_N I *D sky130_fd_sc_hd__a21bo_1
*I *1176:Y O *D sky130_fd_sc_hd__nand3_1
*CAP
1 *1178:A 0.00034536
2 *1180:B1_N 0.000165307
3 *1176:Y 0
4 *258:6 0.000510667
5 *1178:A *1176:A 0.000344925
6 *1178:A *1176:B 0.000372248
7 *1178:A *1178:B 0.000148631
8 *1178:A *1180:A2 6.24012e-05
9 *1178:A *298:390 1.41706e-05
10 *1180:B1_N *1180:A2 3.92854e-05
11 *1180:B1_N *298:384 0.000185643
12 *1180:B1_N *298:390 2.56694e-05
13 *953:A *1178:A 0
14 *39:70 *1178:A 4.13496e-05
*RES
1 *1176:Y *258:6 13.8 
2 *258:6 *1180:B1_N 16.6036 
3 *258:6 *1178:A 23.6036 
*END

*D_NET *259 0.00262056
*CONN
*I *1178:B I *D sky130_fd_sc_hd__nand2_1
*I *1180:A2 I *D sky130_fd_sc_hd__a21bo_1
*I *1177:X O *D sky130_fd_sc_hd__a21o_1
*CAP
1 *1178:B 7.8323e-05
2 *1180:A2 0.000287221
3 *1177:X 5.66027e-05
4 *259:8 0.000422147
5 *1180:A2 *1174:RESET_B 5.9483e-05
6 *1180:A2 *1176:A 0.000346639
7 *1180:A2 *297:425 9.10431e-06
8 *1180:A2 *298:384 0.000312209
9 *259:8 *1177:B1 5.52238e-05
10 *1178:A *1178:B 0.000148631
11 *1178:A *1180:A2 6.24012e-05
12 *1179:A *1178:B 0.000191877
13 *1179:A *1180:A2 0.000397141
14 *1180:A1 *1180:A2 9.90367e-05
15 *1180:B1_N *1180:A2 3.92854e-05
16 *39:70 *1178:B 5.52302e-05
*RES
1 *1177:X *259:8 14.7464 
2 *259:8 *1180:A2 24.2107 
3 *259:8 *1178:B 16.8893 
*END

*D_NET *260 0.000678928
*CONN
*I *1179:B I *D sky130_fd_sc_hd__xnor2_1
*I *1178:Y O *D sky130_fd_sc_hd__nand2_1
*CAP
1 *1179:B 0.000182056
2 *1178:Y 0.000182056
3 *1179:A *1179:B 0.000314816
4 *1182:CLK *1179:B 0
5 *39:51 *1179:B 0
*RES
1 *1178:Y *1179:B 31.725 
*END

*D_NET *261 0.00133458
*CONN
*I *1177:B1 I *D sky130_fd_sc_hd__a21o_1
*I *1176:A I *D sky130_fd_sc_hd__nand3_1
*I *1181:Q O *D sky130_fd_sc_hd__dfrtp_1
*CAP
1 *1177:B1 0.000108012
2 *1176:A 0.000152052
3 *1181:Q 0
4 *261:4 0.000260064
5 *1177:B1 *1176:B 5.52302e-05
6 *1178:A *1176:A 0.000344925
7 *1180:A2 *1176:A 0.000346639
8 *256:10 *1176:A 1.24368e-05
9 *259:8 *1177:B1 5.52238e-05
*RES
1 *1181:Q *261:4 9.3 
2 *261:4 *1176:A 23.2107 
3 *261:4 *1177:B1 11.3893 
*END

*D_NET *262 0.00126096
*CONN
*I *1181:D I *D sky130_fd_sc_hd__dfrtp_1
*I *1180:X O *D sky130_fd_sc_hd__a21bo_1
*CAP
1 *1181:D 0.000541827
2 *1180:X 0.000541827
3 *1181:D *297:425 0
4 *1181:D *298:384 0.000144773
5 *1175:D *1181:D 3.2534e-05
6 *1180:A1 *1181:D 0
7 *44:10 *1181:D 0
8 *44:16 *1181:D 0
9 *44:54 *1181:D 0
*RES
1 *1180:X *1181:D 36.5107 
*END

*D_NET *263 0.00233333
*CONN
*I *1187:A1 I *D sky130_fd_sc_hd__a21bo_1
*I *1186:A I *D sky130_fd_sc_hd__xnor2_1
*I *1182:Q O *D sky130_fd_sc_hd__dfrtp_1
*CAP
1 *1187:A1 0.000360113
2 *1186:A 6.50037e-05
3 *1182:Q 0.000297454
4 *263:8 0.000722571
5 *1186:A *1186:B 9.90431e-05
6 *1187:A1 *1185:A 8.43535e-06
7 *1187:A1 *1185:B 0.000181796
8 *1187:A1 *1186:B 9.71197e-05
9 *1187:A1 *1187:A2 0.000147465
10 *1187:A1 *278:10 2.26327e-05
11 *263:8 *278:10 0.000321446
12 *263:8 *279:10 0
13 *1153:CLK *263:8 1.02504e-05
*RES
1 *1182:Q *263:8 21.2107 
2 *263:8 *1186:A 15.1571 
3 *263:8 *1187:A1 20.4429 
*END

*D_NET *264 0.000270179
*CONN
*I *1182:D I *D sky130_fd_sc_hd__dfrtp_1
*I *1179:Y O *D sky130_fd_sc_hd__xnor2_1
*CAP
1 *1182:D 0.00013509
2 *1179:Y 0.00013509
3 *1182:CLK *1182:D 0
*RES
1 *1179:Y *1182:D 29.7786 
*END

*D_NET *265 0.00104443
*CONN
*I *1187:B1_N I *D sky130_fd_sc_hd__a21bo_1
*I *1185:A I *D sky130_fd_sc_hd__nand2_1
*I *1183:Y O *D sky130_fd_sc_hd__nand3_1
*CAP
1 *1187:B1_N 0
2 *1185:A 0.000110734
3 *1183:Y 0.000278077
4 *265:12 0.000388811
5 *1185:A *1185:B 4.50908e-05
6 *1185:A *1186:B 2.89114e-05
7 *265:12 *1183:B 2.51343e-06
8 *265:12 *1183:C 0
9 *265:12 *266:12 1.19309e-05
10 *1187:A1 *1185:A 8.43535e-06
11 *33:15 *265:12 2.17375e-05
12 *39:51 *265:12 0.000148189
*RES
1 *1183:Y *265:12 22.425 
2 *265:12 *1185:A 11.5143 
3 *265:12 *1187:B1_N 9.3 
*END

*D_NET *266 0.00102974
*CONN
*I *1185:B I *D sky130_fd_sc_hd__nand2_1
*I *1187:A2 I *D sky130_fd_sc_hd__a21bo_1
*I *1184:X O *D sky130_fd_sc_hd__a21o_1
*CAP
1 *1185:B 7.84969e-05
2 *1187:A2 3.93689e-05
3 *1184:X 0.000127568
4 *266:12 0.000245434
5 *266:12 *1183:C 0.000152594
6 *1185:A *1185:B 4.50908e-05
7 *1187:A1 *1185:B 0.000181796
8 *1187:A1 *1187:A2 0.000147465
9 *39:51 *266:12 0
10 *265:12 *266:12 1.19309e-05
*RES
1 *1184:X *266:12 20.7821 
2 *266:12 *1187:A2 10.2464 
3 *266:12 *1185:B 11.4964 
*END

*D_NET *267 0.00035326
*CONN
*I *1186:B I *D sky130_fd_sc_hd__xnor2_1
*I *1185:Y O *D sky130_fd_sc_hd__nand2_1
*CAP
1 *1186:B 6.40928e-05
2 *1185:Y 6.40928e-05
3 *1185:A *1186:B 2.89114e-05
4 *1186:A *1186:B 9.90431e-05
5 *1187:A1 *1186:B 9.71197e-05
*RES
1 *1185:Y *1186:B 20.3679 
*END

*D_NET *268 0.000878553
*CONN
*I *1183:A I *D sky130_fd_sc_hd__nand3_1
*I *1184:B1 I *D sky130_fd_sc_hd__a21o_1
*I *1188:Q O *D sky130_fd_sc_hd__dfrtp_1
*CAP
1 *1183:A 8.32968e-05
2 *1184:B1 0.00015546
3 *1188:Q 4.16687e-05
4 *268:8 0.000280426
5 *1183:A *1184:A1 8.15939e-05
6 *1184:B1 *1183:C 7.40586e-05
7 *1184:B1 *1184:A1 0.000133148
8 *268:8 *1188:D 2.89016e-05
*RES
1 *1188:Q *268:8 14.3357 
2 *268:8 *1184:B1 17.4964 
3 *268:8 *1183:A 15.7464 
*END

*D_NET *269 0.000920973
*CONN
*I *1188:D I *D sky130_fd_sc_hd__dfrtp_1
*I *1187:X O *D sky130_fd_sc_hd__a21bo_1
*CAP
1 *1188:D 0.000385366
2 *1187:X 0.000385366
3 *1188:D *1188:RESET_B 0.000121339
4 *268:8 *1188:D 2.89016e-05
*RES
1 *1187:X *1188:D 25.7071 
*END

*D_NET *270 0.00142875
*CONN
*I *1189:D I *D sky130_fd_sc_hd__dfrtp_1
*I *1186:Y O *D sky130_fd_sc_hd__xnor2_1
*CAP
1 *1189:D 0.000581327
2 *1186:Y 0.000581327
3 *1189:D *281:10 0
4 *1189:D *297:97 0.000266092
*RES
1 *1186:Y *1189:D 36.0107 
*END

*D_NET *271 0.00831997
*CONN
*I *1134:B I *D sky130_fd_sc_hd__nand3_1
*I *1135:A1 I *D sky130_fd_sc_hd__a21o_1
*I *1190:X O *D sky130_fd_sc_hd__buf_1
*CAP
1 *1134:B 2.16932e-05
2 *1135:A1 0.000231632
3 *1190:X 0
4 *271:12 0.000548731
5 *271:8 0.00277757
6 *271:6 0.00248216
7 *1134:B *1134:C 4.27935e-05
8 *1135:A1 *1139:RESET_B 0.000135947
9 *1135:A1 *298:294 1.46624e-05
10 *271:8 *1128:A1 0
11 *271:8 *274:14 0
12 *271:8 *286:8 0
13 *271:12 *1134:C 5.52238e-05
14 *1096:A1 *271:8 0
15 *1097:D *271:8 0.000127439
16 *1098:CLK *271:8 0.000109809
17 *1098:D *271:8 0.000129868
18 *1103:A1 *271:8 0
19 *1104:D *271:8 0.000129868
20 *1111:CLK *271:8 0.000416899
21 *1111:D *271:8 0
22 *1132:CLK *271:8 0.000218404
23 *1135:B1 *1135:A1 0.000144773
24 *1217:A *271:8 0
25 *42:54 *271:8 0.000216098
26 *215:10 *1135:A1 0.000446603
27 *217:10 *1135:A1 6.97972e-05
*RES
1 *1190:X *271:6 13.8 
2 *271:6 *271:8 52.9464 
3 *271:8 *271:12 9.55357 
4 *271:12 *1135:A1 25.6393 
5 *271:12 *1134:B 9.83571 
*END

*D_NET *272 0.00140687
*CONN
*I *994:B I *D sky130_fd_sc_hd__nand3_1
*I *995:A1 I *D sky130_fd_sc_hd__a21o_1
*I *1191:X O *D sky130_fd_sc_hd__clkbuf_1
*CAP
1 *994:B 0
2 *995:A1 0.000203006
3 *1191:X 0.000218589
4 *272:12 0.000421595
5 *995:A1 *995:A2 1.5239e-05
6 *995:A1 *298:87 2.87555e-06
7 *995:A1 *306:14 1.59689e-05
8 *995:A1 *307:10 2.47093e-05
9 *272:12 *273:12 0
10 *272:12 *298:87 9.71197e-05
11 *272:12 *298:102 0.000230482
12 *994:A *995:A1 7.82404e-05
13 *995:B1 *995:A1 0
14 *77:12 *995:A1 9.90431e-05
*RES
1 *1191:X *272:12 22.6393 
2 *272:12 *995:A1 22.3357 
3 *272:12 *994:B 9.3 
*END

*D_NET *273 0.00129224
*CONN
*I *987:B I *D sky130_fd_sc_hd__nand3_1
*I *988:A1 I *D sky130_fd_sc_hd__a21o_1
*I *1192:X O *D sky130_fd_sc_hd__clkbuf_1
*CAP
1 *987:B 0.00010551
2 *988:A1 0
3 *1192:X 0.00030411
4 *273:12 0.00040962
5 *987:B *298:113 2.32013e-05
6 *987:B *298:122 1.40034e-05
7 *273:12 *275:16 0
8 *273:12 *298:102 0.000242681
9 *987:A *987:B 9.70295e-05
10 *987:A *273:12 9.60875e-05
11 *272:12 *273:12 0
*RES
1 *1192:X *273:12 22.7464 
2 *273:12 *988:A1 9.3 
3 *273:12 *987:B 11.0857 
*END

*D_NET *274 0.00876681
*CONN
*I *1127:B I *D sky130_fd_sc_hd__nand3_1
*I *1128:A1 I *D sky130_fd_sc_hd__a21o_1
*I *1193:X O *D sky130_fd_sc_hd__buf_1
*CAP
1 *1127:B 0
2 *1128:A1 0.000385256
3 *1193:X 0.000520359
4 *274:14 0.00195851
5 *274:12 0.00209361
6 *1128:A1 *1127:C 0.000130759
7 *274:12 *1092:B 0.000145724
8 *274:12 *1092:C 0.000142082
9 *274:12 *1093:A2 0
10 *274:12 *286:8 0.000219518
11 *274:12 *298:10 0.000202842
12 *274:14 *1099:C 0
13 *274:14 *1100:A1 0
14 *274:14 *1106:B 0
15 *274:14 *1113:B 0
16 *274:14 *1127:C 2.62888e-05
17 *274:14 *286:8 0.00205977
18 *274:14 *289:18 0
19 *274:14 *298:250 0
20 *274:14 *298:275 0
21 *1095:B *274:12 0
22 *1095:B *274:14 0
23 *1103:B1_N *274:14 6.48957e-05
24 *1110:A1 *274:14 0
25 *1110:A2 *274:14 0
26 *1113:A *274:14 0
27 *1114:B1 *274:14 0
28 *1117:A2 *274:14 0
29 *1118:D *274:14 0
30 *1127:A *1128:A1 2.14658e-05
31 *1128:B1 *1128:A1 1.02936e-05
32 *1131:A1 *1128:A1 0.000409207
33 *1131:A2 *1128:A1 2.28499e-05
34 *1205:A *274:12 2.89114e-05
35 *1208:A *274:12 0
36 *176:10 *274:12 0.000317602
37 *190:8 *274:14 0
38 *213:12 *1128:A1 6.8646e-06
39 *271:8 *1128:A1 0
40 *271:8 *274:14 0
*RES
1 *1193:X *274:12 27.7732 
2 *274:12 *274:14 35.9554 
3 *274:14 *1128:A1 21.4429 
4 *274:14 *1127:B 13.8 
*END

*D_NET *275 0.00298219
*CONN
*I *980:B I *D sky130_fd_sc_hd__nand3_1
*I *981:A1 I *D sky130_fd_sc_hd__a21o_1
*I *1194:X O *D sky130_fd_sc_hd__clkbuf_1
*CAP
1 *980:B 9.31446e-05
2 *981:A1 2.01042e-05
3 *1194:X 0.000667493
4 *275:16 0.000780742
5 *980:B *980:C 4.5622e-05
6 *981:A1 *980:C 5.52238e-05
7 *275:16 *276:16 0.000788756
8 *981:B1 *980:B 0.000139907
9 *989:A *275:16 0.000103084
10 *64:10 *980:B 0.000139913
11 *68:10 *275:16 0
12 *73:12 *275:16 0.000148196
13 *273:12 *275:16 0
*RES
1 *1194:X *275:16 33.5857 
2 *275:16 *981:A1 9.83571 
3 *275:16 *980:B 11.9071 
*END

*D_NET *276 0.00404246
*CONN
*I *974:A1 I *D sky130_fd_sc_hd__a21o_1
*I *973:B I *D sky130_fd_sc_hd__nand3_1
*I *1195:X O *D sky130_fd_sc_hd__buf_1
*CAP
1 *974:A1 0
2 *973:B 0.000101194
3 *1195:X 0.00127671
4 *276:16 0.0013779
5 *973:B *974:A2 6.26956e-05
6 *276:16 *974:A2 2.45562e-05
7 *276:16 *277:10 0
8 *276:16 *298:667 0
9 *974:B1 *276:16 5.71472e-05
10 *976:B *276:16 9.25014e-06
11 *979:D *276:16 0
12 *984:A2 *276:16 0.000204011
13 *64:10 *276:16 7.92879e-05
14 *66:12 *276:16 6.09476e-05
15 *275:16 *276:16 0.000788756
*RES
1 *1195:X *276:16 45.3536 
2 *276:16 *973:B 11.0857 
3 *276:16 *974:A1 9.3 
*END

*D_NET *277 0.0052596
*CONN
*I *1183:B I *D sky130_fd_sc_hd__nand3_1
*I *1184:A1 I *D sky130_fd_sc_hd__a21o_1
*I *1196:X O *D sky130_fd_sc_hd__buf_1
*CAP
1 *1183:B 2.19785e-05
2 *1184:A1 0.000265346
3 *1196:X 0.00175978
4 *277:10 0.0020471
5 *1184:A1 *1183:C 0.000372507
6 *277:10 *278:10 0
7 *976:A *277:10 0
8 *976:B *277:10 0
9 *979:D *277:10 7.83587e-05
10 *983:B *277:10 2.91887e-05
11 *984:B1_N *277:10 0.000181378
12 *1125:CLK *277:10 0.000173076
13 *1183:A *1184:A1 8.15939e-05
14 *1184:B1 *1184:A1 0.000133148
15 *33:15 *1183:B 5.52238e-05
16 *39:51 *1184:A1 0
17 *39:51 *277:10 0
18 *60:10 *277:10 0
19 *63:10 *277:10 5.84075e-05
20 *66:12 *277:10 0
21 *265:12 *1183:B 2.51343e-06
22 *276:16 *277:10 0
*RES
1 *1196:X *277:10 45.2286 
2 *277:10 *1184:A1 19.8357 
3 *277:10 *1183:B 14.3357 
*END

*D_NET *278 0.00877909
*CONN
*I *1177:A1 I *D sky130_fd_sc_hd__a21o_1
*I *1176:B I *D sky130_fd_sc_hd__nand3_1
*I *1197:X O *D sky130_fd_sc_hd__buf_1
*CAP
1 *1177:A1 0
2 *1176:B 0.000256985
3 *1197:X 0.000118462
4 *278:14 0.000330699
5 *278:10 0.00182968
6 *278:8 0.00187443
7 *278:10 *279:10 0
8 *278:14 *1177:A2 9.60875e-05
9 *953:A *1176:B 0
10 *953:A *278:10 0.00027338
11 *971:CLK *278:10 0.000190162
12 *983:A *278:10 0.000151638
13 *983:B *278:10 0
14 *1153:CLK *278:10 0.00012742
15 *1177:B1 *1176:B 5.52302e-05
16 *1178:A *1176:B 0.000372248
17 *1187:A1 *278:10 2.26327e-05
18 *1197:A *278:8 7.43578e-06
19 *39:51 *278:10 0.00204761
20 *45:68 *1176:B 0
21 *45:68 *278:10 9.27685e-05
22 *47:31 *278:10 0.000396427
23 *47:40 *278:10 0.000214349
24 *263:8 *278:10 0.000321446
25 *277:10 *278:10 0
*RES
1 *1197:X *278:8 15.1571 
2 *278:8 *278:10 48.3929 
3 *278:10 *278:14 5.85714 
4 *278:14 *1176:B 24.3357 
5 *278:14 *1177:A1 9.3 
*END

*D_NET *279 0.00849481
*CONN
*I *1170:A1 I *D sky130_fd_sc_hd__a21o_1
*I *1169:B I *D sky130_fd_sc_hd__nand3_1
*I *1198:X O *D sky130_fd_sc_hd__buf_1
*CAP
1 *1170:A1 0.000108847
2 *1169:B 0
3 *1198:X 7.61584e-05
4 *279:16 0.000337355
5 *279:10 0.00336937
6 *279:8 0.00321702
7 *1170:A1 *1170:A2 1.21289e-05
8 *279:10 *967:A 0.00015304
9 *279:10 *969:A1 0.000183674
10 *279:10 *971:RESET_B 0
11 *279:10 *992:RESET_B 0
12 *279:10 *1148:C 0
13 *279:10 *1162:C 0
14 *279:10 *297:97 0
15 *279:10 *297:697 0
16 *279:10 *298:403 0
17 *279:10 *298:429 0
18 *279:10 *298:492 0
19 *279:10 *298:496 0
20 *279:16 *1170:A2 5.62995e-05
21 *967:B *279:10 0.000113381
22 *972:D *279:10 0
23 *1146:CLK *279:10 0
24 *1153:CLK *279:10 0
25 *1153:D *279:10 4.25716e-05
26 *1167:CLK *279:16 3.97657e-05
27 *1167:D *279:16 0.000105163
28 *1169:A *1170:A1 0.000111383
29 *1198:A *279:8 3.18676e-05
30 *45:16 *279:10 0
31 *45:68 *279:10 0
32 *47:12 *279:10 0.000179656
33 *47:21 *279:10 0.000181352
34 *47:25 *279:10 0.000175779
35 *47:31 *279:10 0
36 *47:40 *279:10 0
37 *47:99 *279:10 0
38 *263:8 *279:10 0
39 *278:10 *279:10 0
*RES
1 *1198:X *279:8 14.7464 
2 *279:8 *279:10 59.3214 
3 *279:10 *279:16 9.16071 
4 *279:16 *1169:B 9.3 
5 *279:16 *1170:A1 11.0857 
*END

*D_NET *280 0.0108435
*CONN
*I *1163:A1 I *D sky130_fd_sc_hd__a21o_1
*I *1162:B I *D sky130_fd_sc_hd__nand3_1
*I *1199:X O *D sky130_fd_sc_hd__buf_1
*CAP
1 *1163:A1 0.000253139
2 *1162:B 0.000336397
3 *1199:X 0.000293086
4 *280:14 0.00105941
5 *280:12 0.00201161
6 *280:8 0.00183482
7 *1162:B *1162:C 9.90367e-05
8 *1162:B *1168:RESET_B 0.000139907
9 *280:8 *281:8 5.37963e-05
10 *280:12 *1142:A2 5.64115e-05
11 *280:12 *1147:RESET_B 9.30466e-05
12 *280:12 *281:10 0.00117461
13 *280:12 *283:10 0.000496411
14 *280:12 *297:649 0.000149812
15 *280:12 *297:661 0.000269102
16 *280:12 *298:443 0.00029324
17 *280:14 *1147:RESET_B 0
18 *280:14 *281:10 0.000163072
19 *280:14 *297:44 0
20 *1048:D *280:12 0.000100831
21 *1122:A *280:12 0.000269521
22 *1122:B *280:12 0.000222878
23 *1151:B *280:12 7.60306e-05
24 *1157:B *280:14 0
25 *1158:A *280:14 0.000226021
26 *1158:B *280:14 0
27 *1159:B1_N *280:14 2.58997e-05
28 *1161:CLK *1163:A1 0.000225609
29 *1161:D *280:14 0
30 *1163:B1 *1163:A1 2.89016e-05
31 *1164:A *1162:B 5.2514e-05
32 *1164:B *1163:A1 3.99614e-06
33 *1165:B *1162:B 1.3142e-05
34 *1166:A2 *1163:A1 5.74499e-06
35 *1166:B1_N *1162:B 1.39841e-05
36 *1168:CLK *1162:B 0.000221634
37 *1168:D *1162:B 0
38 *1202:A *280:12 5.83233e-05
39 *1203:A *280:12 0
40 *203:10 *280:12 0.000169405
41 *235:8 *280:14 0.000116481
42 *238:12 *280:14 5.35423e-05
43 *242:12 *1162:B 0.000126439
44 *249:16 *1162:B 5.56703e-05
*RES
1 *1199:X *280:8 18.4429 
2 *280:8 *280:12 48.5804 
3 *280:12 *280:14 10.9018 
4 *280:14 *1162:B 21.9786 
5 *280:14 *1163:A1 18.4786 
*END

*D_NET *281 0.00802824
*CONN
*I *1155:B I *D sky130_fd_sc_hd__nand3_1
*I *1156:A1 I *D sky130_fd_sc_hd__a21o_1
*I *1200:X O *D sky130_fd_sc_hd__buf_1
*CAP
1 *1155:B 0
2 *1156:A1 0.000197605
3 *1200:X 0.000131847
4 *281:14 0.000361651
5 *281:10 0.00229368
6 *281:8 0.00226148
7 *1156:A1 *298:403 0.000195481
8 *281:10 *297:88 0
9 *281:10 *297:97 0
10 *281:10 *297:113 0
11 *281:10 *297:122 0
12 *281:10 *297:637 0
13 *281:10 *298:429 0
14 *972:D *281:10 0
15 *1048:D *281:10 5.24274e-05
16 *1122:B *281:10 0.000117378
17 *1125:D *281:10 4.57538e-05
18 *1148:A *281:10 0.000125724
19 *1151:B *281:10 0.000150618
20 *1155:A *1156:A1 0.00021625
21 *1155:A *281:14 2.59355e-05
22 *1156:B1 *1156:A1 0.000153054
23 *1157:B *281:10 0
24 *1159:B1_N *281:14 0.00014285
25 *1189:D *281:10 0
26 *45:10 *281:10 0
27 *48:14 *281:10 5.01213e-05
28 *49:12 *281:10 0
29 *231:12 *281:10 7.50505e-05
30 *237:8 *281:14 3.98547e-05
31 *280:8 *281:8 5.37963e-05
32 *280:12 *281:10 0.00117461
33 *280:14 *281:10 0.000163072
*RES
1 *1200:X *281:8 15.5679 
2 *281:8 *281:10 48.3929 
3 *281:10 *281:14 7.5 
4 *281:14 *1156:A1 24.05 
5 *281:14 *1155:B 9.3 
*END

*D_NET *282 0.00586413
*CONN
*I *1057:B I *D sky130_fd_sc_hd__nand3_1
*I *1058:A1 I *D sky130_fd_sc_hd__a21o_1
*I *1201:X O *D sky130_fd_sc_hd__buf_1
*CAP
1 *1057:B 0.00019977
2 *1058:A1 0.00034041
3 *1201:X 0.00135616
4 *282:14 0.00189634
5 *1058:A1 *293:12 0.000101545
6 *282:14 *1078:B 1.37292e-05
7 *282:14 *293:12 0.0012123
8 *282:14 *296:12 0
9 *282:14 *298:802 0
10 *951:A *282:14 0.000146474
11 *1057:A *1057:B 5.52238e-05
12 *1057:A *1058:A1 0
13 *1066:A *282:14 7.57869e-05
14 *1067:A *282:14 0
15 *1068:B1_N *282:14 0.000104227
16 *1074:A *282:14 0
17 *1081:B *282:14 0
18 *141:12 *1058:A1 5.39166e-06
19 *152:10 *282:14 0
20 *162:10 *282:14 0.000320031
21 *164:10 *282:14 3.67452e-05
*RES
1 *1201:X *282:14 44.7821 
2 *282:14 *1058:A1 18.1393 
3 *282:14 *1057:B 16.8 
*END

*D_NET *283 0.00698567
*CONN
*I *1148:B I *D sky130_fd_sc_hd__nand3_1
*I *1149:A1 I *D sky130_fd_sc_hd__a21o_1
*I *1202:X O *D sky130_fd_sc_hd__buf_1
*CAP
1 *1148:B 0.000315594
2 *1149:A1 0.000138823
3 *1202:X 8.5642e-05
4 *283:10 0.00192784
5 *283:8 0.00155907
6 *1149:A1 *298:439 2.27416e-05
7 *1149:A1 *298:443 0.000101545
8 *283:10 *1142:A2 0.000108111
9 *283:10 *285:14 0
10 *283:10 *297:649 0.000273387
11 *283:10 *297:661 0.000510179
12 *283:10 *298:443 0.000387891
13 *1044:B1 *283:10 0
14 *1045:B *283:10 0
15 *1046:B *283:10 0
16 *1047:A1 *283:10 0
17 *1049:D *283:10 4.57538e-05
18 *1122:A *283:10 0.00010964
19 *1126:D *283:10 0.000154801
20 *1141:A *283:10 8.06331e-05
21 *1144:A *283:10 0
22 *1148:A *1148:B 0.00014285
23 *127:10 *283:10 0
24 *131:12 *283:10 0
25 *203:10 *283:10 5.41054e-05
26 *204:12 *283:10 0.000128161
27 *206:12 *283:10 0.000342495
28 *208:10 *283:10 0
29 *280:12 *283:10 0.000496411
*RES
1 *1202:X *283:8 14.7464 
2 *283:8 *283:10 38.6786 
3 *283:10 *1149:A1 16.0857 
4 *283:10 *1148:B 18.4429 
*END

*D_NET *284 0.00640408
*CONN
*I *1142:A1 I *D sky130_fd_sc_hd__a21o_1
*I *1141:B I *D sky130_fd_sc_hd__nand3_1
*I *1203:X O *D sky130_fd_sc_hd__buf_1
*CAP
1 *1142:A1 1.40568e-05
2 *1141:B 0.000435014
3 *1203:X 0.00166576
4 *284:10 0.00211483
5 *1141:B *1142:A2 9.13377e-05
6 *284:10 *1043:B 0.000390568
7 *284:10 *285:14 0
8 *284:10 *287:8 6.91157e-05
9 *284:10 *298:148 7.38748e-05
10 *284:10 *298:154 0.000554136
11 *1043:A *284:10 0.000248486
12 *1123:B *284:10 0
13 *1126:D *284:10 0
14 *1141:A *1141:B 0.000125731
15 *1142:B1 *1141:B 2.27304e-05
16 *1142:B1 *1142:A1 5.52238e-05
17 *1143:B *1141:B 3.17148e-05
18 *1144:A *1141:B 4.39724e-05
19 *1145:A2 *1141:B 0.000353079
20 *1145:A2 *1142:A1 2.89016e-05
21 *1204:A *284:10 3.17067e-05
22 *1206:A *284:10 2.19684e-05
23 *1207:A *284:10 0
24 *33:15 *1141:B 0
25 *131:12 *284:10 0
26 *223:10 *1141:B 3.18676e-05
*RES
1 *1203:X *284:10 49.2107 
2 *284:10 *1141:B 30.675 
3 *284:10 *1142:A1 14.3357 
*END

*D_NET *285 0.00311757
*CONN
*I *1120:B I *D sky130_fd_sc_hd__nand3_1
*I *1121:A1 I *D sky130_fd_sc_hd__a21o_1
*I *1204:X O *D sky130_fd_sc_hd__buf_1
*CAP
1 *1120:B 0
2 *1121:A1 4.33987e-05
3 *1204:X 0.000672924
4 *285:14 0.000716322
5 *1121:A1 *1121:A2 0.000205763
6 *285:14 *1121:A2 3.98559e-05
7 *285:14 *298:148 0.000177867
8 *285:14 *298:154 0.000434301
9 *1044:B1 *285:14 0.000150625
10 *1045:A *285:14 0.00025263
11 *1045:B *285:14 0
12 *1046:B *285:14 9.10431e-06
13 *1047:A1 *285:14 0.000196442
14 *1049:D *285:14 0
15 *1120:A *1121:A1 3.4855e-05
16 *1120:A *285:14 9.7049e-06
17 *127:10 *285:14 0
18 *131:12 *285:14 0.00017378
19 *283:10 *285:14 0
20 *284:10 *285:14 0
*RES
1 *1204:X *285:14 38.3179 
2 *285:14 *1121:A1 11.0857 
3 *285:14 *1120:B 9.3 
*END

*D_NET *286 0.00689711
*CONN
*I *1113:B I *D sky130_fd_sc_hd__nand3_1
*I *1114:A1 I *D sky130_fd_sc_hd__a21o_1
*I *1205:X O *D sky130_fd_sc_hd__buf_1
*CAP
1 *1113:B 0.000284528
2 *1114:A1 0
3 *1205:X 0.00115159
4 *286:12 0.00043371
5 *286:8 0.00130077
6 *1113:B *1114:A2 0.000217141
7 *1113:B *298:250 3.17148e-05
8 *1113:B *298:265 0.000184782
9 *286:12 *1114:A2 5.71472e-05
10 *1096:A1 *286:8 0.000213756
11 *1097:D *286:8 0
12 *1098:D *286:8 0
13 *1103:A1 *286:8 0.000106542
14 *1111:D *286:8 0.000128154
15 *1114:B1 *1113:B 3.90513e-05
16 *1117:A2 *1113:B 0.000148903
17 *176:10 *286:8 0.000320031
18 *271:8 *286:8 0
19 *274:12 *286:8 0.000219518
20 *274:14 *1113:B 0
21 *274:14 *286:8 0.00205977
*RES
1 *1205:X *286:8 48.8357 
2 *286:8 *286:12 6.26786 
3 *286:12 *1114:A1 9.3 
4 *286:12 *1113:B 24.3536 
*END

*D_NET *287 0.00150132
*CONN
*I *1044:A1 I *D sky130_fd_sc_hd__a21o_1
*I *1043:B I *D sky130_fd_sc_hd__nand3_1
*I *1206:X O *D sky130_fd_sc_hd__clkbuf_1
*CAP
1 *1044:A1 0.000137865
2 *1043:B 0.000260383
3 *1206:X 3.48719e-05
4 *287:8 0.00043312
5 *1044:A1 *288:10 4.16984e-05
6 *1044:A1 *298:144 5.71472e-05
7 *1043:A *1043:B 2.89114e-05
8 *1207:A *1043:B 2.19684e-05
9 *1207:A *287:8 2.56694e-05
10 *284:10 *1043:B 0.000390568
11 *284:10 *287:8 6.91157e-05
*RES
1 *1206:X *287:8 14.8357 
2 *287:8 *1043:B 19.7464 
3 *287:8 *1044:A1 15.5679 
*END

*D_NET *288 0.00168078
*CONN
*I *965:A1 I *D sky130_fd_sc_hd__a21o_1
*I *964:B I *D sky130_fd_sc_hd__nand3_1
*I *1207:X O *D sky130_fd_sc_hd__clkbuf_1
*CAP
1 *965:A1 4.09114e-05
2 *964:B 0
3 *1207:X 0.000441721
4 *288:10 0.000482633
5 *965:A1 *965:A2 5.71472e-05
6 *965:A1 *298:135 0.000150539
7 *288:10 *298:135 2.42662e-05
8 *288:10 *298:144 0.000352785
9 *964:A *965:A1 2.44318e-05
10 *964:A *288:10 3.57366e-05
11 *1044:A1 *288:10 4.16984e-05
12 *127:10 *288:10 2.89114e-05
*RES
1 *1207:X *288:10 18.4964 
2 *288:10 *964:B 9.3 
3 *288:10 *965:A1 11.0857 
*END

*D_NET *289 0.00662465
*CONN
*I *1106:B I *D sky130_fd_sc_hd__nand3_1
*I *1107:A1 I *D sky130_fd_sc_hd__a21o_1
*I *1208:X O *D sky130_fd_sc_hd__buf_1
*CAP
1 *1106:B 0.00024116
2 *1107:A1 6.45737e-05
3 *1208:X 0.00110853
4 *289:18 0.00141426
5 *1106:B *298:244 4.98055e-06
6 *1106:B *298:250 2.76151e-05
7 *1107:A1 *1107:A2 4.88637e-05
8 *289:18 *1093:A2 2.09495e-05
9 *289:18 *1099:C 0.0003335
10 *289:18 *1100:A1 6.69321e-05
11 *289:18 *290:14 0.0011345
12 *289:18 *298:229 0.000202297
13 *1092:A *289:18 0.000245356
14 *1093:B1 *289:18 8.00806e-05
15 *1095:B *289:18 0.000305046
16 *1099:A *289:18 0.000114759
17 *1100:B1 *289:18 0.000195562
18 *1101:A *289:18 0
19 *1106:A *1106:B 0.000247064
20 *1107:B1 *1106:B 0.000190129
21 *1107:B1 *1107:A1 5.52238e-05
22 *1107:B1 *289:18 6.8646e-06
23 *1110:A1 *1106:B 1.08359e-05
24 *1110:A2 *1106:B 0.000198705
25 *180:12 *289:18 0.000181134
26 *187:12 *289:18 0
27 *190:8 *1106:B 0.000125731
28 *274:14 *1106:B 0
29 *274:14 *289:18 0
*RES
1 *1208:X *289:18 49.4071 
2 *289:18 *1107:A1 10.6571 
3 *289:18 *1106:B 24.8893 
*END

*D_NET *290 0.00469894
*CONN
*I *1099:B I *D sky130_fd_sc_hd__nand3_1
*I *1100:A1 I *D sky130_fd_sc_hd__a21o_1
*I *1209:X O *D sky130_fd_sc_hd__buf_1
*CAP
1 *1099:B 0
2 *1100:A1 0.000332181
3 *1209:X 0.00062037
4 *290:14 0.000952551
5 *1100:A1 *1099:C 0.00033972
6 *1100:A1 *298:221 4.65129e-06
7 *290:14 *291:10 1.92905e-05
8 *290:14 *297:286 0.000242467
9 *290:14 *297:288 0.000103152
10 *290:14 *297:290 4.16114e-05
11 *290:14 *297:292 0.000102815
12 *1090:D *290:14 6.65302e-05
13 *1100:B1 *1100:A1 5.7661e-06
14 *1101:B *1100:A1 3.66524e-05
15 *1103:B1_N *1100:A1 0.000165554
16 *180:12 *290:14 0.000368104
17 *182:10 *290:14 9.60939e-05
18 *274:14 *1100:A1 0
19 *289:18 *1100:A1 6.69321e-05
20 *289:18 *290:14 0.0011345
*RES
1 *1209:X *290:14 39.4429 
2 *290:14 *1100:A1 25.9786 
3 *290:14 *1099:B 9.3 
*END

*D_NET *291 0.00157686
*CONN
*I *1093:A1 I *D sky130_fd_sc_hd__a21o_1
*I *1092:B I *D sky130_fd_sc_hd__nand3_1
*I *1210:X O *D sky130_fd_sc_hd__clkbuf_1
*CAP
1 *1093:A1 0
2 *1092:B 0.000133279
3 *1210:X 0.000340053
4 *291:10 0.000473331
5 *1092:B *1093:A2 0.000389161
6 *1093:B1 *291:10 7.60272e-05
7 *274:12 *1092:B 0.000145724
8 *290:14 *291:10 1.92905e-05
*RES
1 *1210:X *291:10 15.2107 
2 *291:10 *1092:B 23.2821 
3 *291:10 *1093:A1 9.3 
*END

*D_NET *292 0.00213804
*CONN
*I *1086:A1 I *D sky130_fd_sc_hd__a21o_1
*I *1085:B I *D sky130_fd_sc_hd__nand3_1
*I *1211:X O *D sky130_fd_sc_hd__clkbuf_1
*CAP
1 *1086:A1 4.13839e-05
2 *1085:B 0.000203336
3 *1211:X 0.000426863
4 *292:12 0.000671583
5 *1085:B *295:14 1.0033e-05
6 *1085:B *298:194 1.86434e-05
7 *292:12 *1086:A2 5.33614e-05
8 *292:12 *295:14 0.00016845
9 *292:12 *298:54 0.000172679
10 *1085:A *1085:B 3.8624e-05
11 *1087:A *1085:B 1.59373e-05
12 *1087:B *1085:B 0.000179032
13 *1087:B *1086:A1 5.48009e-05
14 *1087:B *292:12 3.12359e-05
15 *1088:B *1085:B 5.20751e-05
*RES
1 *1211:X *292:12 21.4964 
2 *292:12 *1085:B 18.3536 
3 *292:12 *1086:A1 14.3357 
*END

*D_NET *293 0.00775595
*CONN
*I *1050:B I *D sky130_fd_sc_hd__nand3_1
*I *1051:A1 I *D sky130_fd_sc_hd__a21o_1
*I *1212:X O *D sky130_fd_sc_hd__buf_1
*CAP
1 *1050:B 0
2 *1051:A1 5.1521e-05
3 *1212:X 0.00143267
4 *293:18 0.000803668
5 *293:12 0.00218482
6 *1051:A1 *1050:C 0
7 *1051:A1 *1051:A2 5.71472e-05
8 *1051:A1 *298:572 1.21289e-05
9 *293:12 *1064:B 0.0002678
10 *293:12 *1078:B 5.58941e-05
11 *293:12 *302:10 0
12 *293:18 *1050:C 5.71472e-05
13 *293:18 *298:572 8.41504e-05
14 *293:18 *302:10 0
15 *293:18 *302:18 0.000732331
16 *1050:A *1051:A1 3.4855e-05
17 *1057:A *293:12 0
18 *1057:A *293:18 0
19 *1058:A1 *293:12 0.000101545
20 *1060:A *293:18 5.08481e-05
21 *1060:B *293:18 0.000128154
22 *1077:D *293:12 3.5707e-05
23 *41:56 *293:18 0
24 *133:8 *1051:A1 0.00010096
25 *140:12 *293:18 0
26 *161:12 *293:12 0.000320024
27 *164:10 *293:12 3.22834e-05
28 *282:14 *293:12 0.0012123
*RES
1 *1212:X *293:12 45.5054 
2 *293:12 *293:18 23.4375 
3 *293:18 *1051:A1 11.0857 
4 *293:18 *1050:B 9.3 
*END

*D_NET *294 0.00221374
*CONN
*I *1078:B I *D sky130_fd_sc_hd__nand3_1
*I *1079:A1 I *D sky130_fd_sc_hd__a21o_1
*I *1213:X O *D sky130_fd_sc_hd__clkbuf_1
*CAP
1 *1078:B 0.000205468
2 *1079:A1 0
3 *1213:X 0.000615808
4 *294:14 0.000821275
5 *1078:B *298:63 0.000258011
6 *294:14 *295:14 2.72967e-05
7 *294:14 *296:12 7.6644e-05
8 *294:14 *297:274 4.46186e-06
9 *294:14 *298:54 6.87574e-05
10 *294:14 *298:63 5.71472e-05
11 *164:10 *1078:B 9.25014e-06
12 *282:14 *1078:B 1.37292e-05
13 *293:12 *1078:B 5.58941e-05
*RES
1 *1213:X *294:14 26.1571 
2 *294:14 *1079:A1 9.3 
3 *294:14 *1078:B 21.6214 
*END

*D_NET *295 0.00332711
*CONN
*I *1071:B I *D sky130_fd_sc_hd__nand3_1
*I *1072:A1 I *D sky130_fd_sc_hd__a21o_1
*I *1214:X O *D sky130_fd_sc_hd__clkbuf_1
*CAP
1 *1071:B 0
2 *1072:A1 0.000287939
3 *1214:X 0.000894725
4 *295:14 0.00118266
5 *1072:A1 *298:196 0
6 *1072:A1 *298:789 5.65955e-05
7 *295:14 *297:247 0
8 *295:14 *297:254 0
9 *295:14 *297:274 0
10 *295:14 *298:194 0
11 *295:14 *298:196 0
12 *1071:A *1072:A1 0.000211577
13 *1071:A *295:14 3.27461e-05
14 *1072:B1 *1072:A1 0.000265799
15 *1082:A1 *295:14 0
16 *1083:D *295:14 3.79467e-05
17 *1085:B *295:14 1.0033e-05
18 *1087:B *295:14 0.00015134
19 *1214:A *295:14 0
20 *159:8 *295:14 0
21 *292:12 *295:14 0.00016845
22 *294:14 *295:14 2.72967e-05
*RES
1 *1214:X *295:14 31.425 
2 *295:14 *1072:A1 20.5321 
3 *295:14 *1071:B 13.8 
*END

*D_NET *296 0.00456232
*CONN
*I *1064:B I *D sky130_fd_sc_hd__nand3_1
*I *1065:A1 I *D sky130_fd_sc_hd__a21o_1
*I *1215:X O *D sky130_fd_sc_hd__buf_1
*CAP
1 *1064:B 0.000425378
2 *1065:A1 0
3 *1215:X 0.000917499
4 *296:12 0.00134288
5 *1064:B *1064:C 0.000615986
6 *296:12 *297:233 0.000193175
7 *296:12 *297:247 0.000393579
8 *296:12 *297:254 7.58571e-05
9 *296:12 *297:274 3.38229e-05
10 *951:A *296:12 0
11 *1074:A *296:12 4.66511e-05
12 *1081:B *296:12 6.97972e-05
13 *152:10 *296:12 0.00010326
14 *282:14 *296:12 0
15 *293:12 *1064:B 0.0002678
16 *294:14 *296:12 7.6644e-05
*RES
1 *1215:X *296:12 39.3 
2 *296:12 *1065:A1 9.3 
3 *296:12 *1064:B 26.4071 
*END

*D_NET *297 0.0871295
*CONN
*I *1168:RESET_B I *D sky130_fd_sc_hd__dfrtp_1
*I *1126:RESET_B I *D sky130_fd_sc_hd__dfrtp_1
*I *1189:RESET_B I *D sky130_fd_sc_hd__dfrtp_1
*I *1049:RESET_B I *D sky130_fd_sc_hd__dfrtp_1
*I *1048:RESET_B I *D sky130_fd_sc_hd__dfrtp_1
*I *971:RESET_B I *D sky130_fd_sc_hd__dfrtp_1
*I *992:RESET_B I *D sky130_fd_sc_hd__dfrtp_1
*I *1000:RESET_B I *D sky130_fd_sc_hd__dfrtp_1
*I *1084:RESET_B I *D sky130_fd_sc_hd__dfrtp_1
*I *993:RESET_B I *D sky130_fd_sc_hd__dfrtp_1
*I *972:RESET_B I *D sky130_fd_sc_hd__dfrtp_1
*I *986:RESET_B I *D sky130_fd_sc_hd__dfrtp_1
*I *1006:RESET_B I *D sky130_fd_sc_hd__dfrtp_1
*I *1090:RESET_B I *D sky130_fd_sc_hd__dfrtp_1
*I *1091:RESET_B I *D sky130_fd_sc_hd__dfrtp_1
*I *1098:RESET_B I *D sky130_fd_sc_hd__dfrtp_1
*I *1076:RESET_B I *D sky130_fd_sc_hd__dfrtp_1
*I *1104:RESET_B I *D sky130_fd_sc_hd__dfrtp_1
*I *1105:RESET_B I *D sky130_fd_sc_hd__dfrtp_1
*I *1069:RESET_B I *D sky130_fd_sc_hd__dfrtp_1
*I *1111:RESET_B I *D sky130_fd_sc_hd__dfrtp_1
*I *1062:RESET_B I *D sky130_fd_sc_hd__dfrtp_1
*I *1118:RESET_B I *D sky130_fd_sc_hd__dfrtp_1
*I *1119:RESET_B I *D sky130_fd_sc_hd__dfrtp_1
*I *1132:RESET_B I *D sky130_fd_sc_hd__dfrtp_1
*I *1055:RESET_B I *D sky130_fd_sc_hd__dfrtp_1
*I *1133:RESET_B I *D sky130_fd_sc_hd__dfrtp_1
*I *1139:RESET_B I *D sky130_fd_sc_hd__dfrtp_1
*I *1042:RESET_B I *D sky130_fd_sc_hd__dfrtp_1
*I *1041:RESET_B I *D sky130_fd_sc_hd__dfrtp_1
*I *1020:RESET_B I *D sky130_fd_sc_hd__dfrtp_1
*I *1056:RESET_B I *D sky130_fd_sc_hd__dfrtp_1
*I *1021:RESET_B I *D sky130_fd_sc_hd__dfrtp_1
*I *1027:RESET_B I *D sky130_fd_sc_hd__dfrtp_1
*I *1014:RESET_B I *D sky130_fd_sc_hd__dfrtp_1
*I *1181:RESET_B I *D sky130_fd_sc_hd__dfrtp_1
*I *1174:RESET_B I *D sky130_fd_sc_hd__dfrtp_1
*I *1175:RESET_B I *D sky130_fd_sc_hd__dfrtp_1
*I *1028:RESET_B I *D sky130_fd_sc_hd__dfrtp_1
*I *1035:RESET_B I *D sky130_fd_sc_hd__dfrtp_1
*I *1034:RESET_B I *D sky130_fd_sc_hd__dfrtp_1
*I *1140:RESET_B I *D sky130_fd_sc_hd__dfrtp_1
*I *1112:RESET_B I *D sky130_fd_sc_hd__dfrtp_1
*I *1097:RESET_B I *D sky130_fd_sc_hd__dfrtp_1
*I *999:RESET_B I *D sky130_fd_sc_hd__dfrtp_1
*I *1083:RESET_B I *D sky130_fd_sc_hd__dfrtp_1
*I *1077:RESET_B I *D sky130_fd_sc_hd__dfrtp_1
*I *1070:RESET_B I *D sky130_fd_sc_hd__dfrtp_1
*I *1007:RESET_B I *D sky130_fd_sc_hd__dfrtp_1
*I *1063:RESET_B I *D sky130_fd_sc_hd__dfrtp_1
*I *1188:RESET_B I *D sky130_fd_sc_hd__dfrtp_1
*I *978:RESET_B I *D sky130_fd_sc_hd__dfrtp_1
*I *1013:RESET_B I *D sky130_fd_sc_hd__dfrtp_1
*I *985:RESET_B I *D sky130_fd_sc_hd__dfrtp_1
*I *979:RESET_B I *D sky130_fd_sc_hd__dfrtp_1
*I *1125:RESET_B I *D sky130_fd_sc_hd__dfrtp_1
*I *1146:RESET_B I *D sky130_fd_sc_hd__dfrtp_1
*I *1153:RESET_B I *D sky130_fd_sc_hd__dfrtp_1
*I *1182:RESET_B I *D sky130_fd_sc_hd__dfrtp_1
*I *1147:RESET_B I *D sky130_fd_sc_hd__dfrtp_1
*I *1154:RESET_B I *D sky130_fd_sc_hd__dfrtp_1
*I *1160:RESET_B I *D sky130_fd_sc_hd__dfrtp_1
*I *1161:RESET_B I *D sky130_fd_sc_hd__dfrtp_1
*I *1167:RESET_B I *D sky130_fd_sc_hd__dfrtp_1
*I *1216:X O *D sky130_fd_sc_hd__buf_12
*CAP
1 *1168:RESET_B 0.000276472
2 *1126:RESET_B 0.000480911
3 *1189:RESET_B 5.01513e-05
4 *1049:RESET_B 0.000113065
5 *1048:RESET_B 6.59404e-05
6 *971:RESET_B 0.000227233
7 *992:RESET_B 0.000672377
8 *1000:RESET_B 1.67996e-05
9 *1084:RESET_B 0.000489401
10 *993:RESET_B 0.000231364
11 *972:RESET_B 6.66793e-05
12 *986:RESET_B 4.71781e-05
13 *1006:RESET_B 5.72059e-06
14 *1090:RESET_B 6.90701e-06
15 *1091:RESET_B 0
16 *1098:RESET_B 0.000225148
17 *1076:RESET_B 5.09419e-05
18 *1104:RESET_B 0.000219733
19 *1105:RESET_B 1.60672e-05
20 *1069:RESET_B 0.00058722
21 *1111:RESET_B 0.000460844
22 *1062:RESET_B 0.00030119
23 *1118:RESET_B 0.00034345
24 *1119:RESET_B 0
25 *1132:RESET_B 0.000417278
26 *1055:RESET_B 0.000201086
27 *1133:RESET_B 0
28 *1139:RESET_B 0.00042409
29 *1042:RESET_B 0
30 *1041:RESET_B 5.09529e-06
31 *1020:RESET_B 0.000132776
32 *1056:RESET_B 8.97559e-05
33 *1021:RESET_B 0
34 *1027:RESET_B 0
35 *1014:RESET_B 0.000571257
36 *1181:RESET_B 0
37 *1174:RESET_B 0.000460254
38 *1175:RESET_B 0.000927264
39 *1028:RESET_B 0.000547065
40 *1035:RESET_B 0.000677309
41 *1034:RESET_B 0.00120181
42 *1140:RESET_B 0.000411788
43 *1112:RESET_B 3.45485e-05
44 *1097:RESET_B 0.000218115
45 *999:RESET_B 0.00058351
46 *1083:RESET_B 0
47 *1077:RESET_B 6.66793e-05
48 *1070:RESET_B 0.000837172
49 *1007:RESET_B 0.000247232
50 *1063:RESET_B 0
51 *1188:RESET_B 0.000433707
52 *978:RESET_B 0.00119884
53 *1013:RESET_B 3.41245e-05
54 *985:RESET_B 0.00195231
55 *979:RESET_B 6.7761e-06
56 *1125:RESET_B 0
57 *1146:RESET_B 5.91479e-05
58 *1153:RESET_B 0
59 *1182:RESET_B 0.000778527
60 *1147:RESET_B 0.000690391
61 *1154:RESET_B 0
62 *1160:RESET_B 8.68204e-05
63 *1161:RESET_B 0.000218761
64 *1167:RESET_B 7.52214e-05
65 *1216:X 0.0005126
66 *297:697 0.00199144
67 *297:681 0.00215762
68 *297:673 0.000584429
69 *297:667 0.00113908
70 *297:661 0.000797188
71 *297:649 0.000315746
72 *297:645 0.00046622
73 *297:637 0.000651435
74 *297:474 0.00107023
75 *297:461 0.000959792
76 *297:450 0.000441852
77 *297:425 0.000796649
78 *297:412 0.000685646
79 *297:400 0.00151006
80 *297:357 0.000942697
81 *297:341 0.000631154
82 *297:337 0.000207943
83 *297:335 0.000558465
84 *297:333 8.33092e-05
85 *297:331 0.00050058
86 *297:327 0.000962825
87 *297:325 0.000406352
88 *297:323 0.000537595
89 *297:312 0.000190457
90 *297:310 0.000556523
91 *297:308 0.00114964
92 *297:302 0.00127236
93 *297:296 0.000402004
94 *297:292 0.000640246
95 *297:290 0.000363992
96 *297:288 0.00045419
97 *297:286 0.000550769
98 *297:276 0.000699129
99 *297:274 0.000970675
100 *297:254 0.00158673
101 *297:247 0.000431741
102 *297:233 0.000800783
103 *297:181 0.00089347
104 *297:175 0.000150051
105 *297:173 0.000440861
106 *297:171 0.000803361
107 *297:165 0.00141078
108 *297:126 0.000928717
109 *297:122 0.000616057
110 *297:113 0.000363456
111 *297:101 0.000271712
112 *297:99 0.000154096
113 *297:97 0.00111926
114 *297:88 0.000574129
115 *297:76 0.00126227
116 *297:56 0.000599459
117 *297:44 0.000862997
118 *297:20 0.000687111
119 *297:10 0.000205797
120 *297:8 0.000874385
121 *971:RESET_B *298:122 4.85567e-05
122 *985:RESET_B *298:667 0
123 *999:RESET_B *298:54 0.000122101
124 *999:RESET_B *298:63 9.21719e-05
125 *999:RESET_B *298:72 0.000589993
126 *1013:RESET_B *303:8 0.000128154
127 *1020:RESET_B *302:18 2.47093e-05
128 *1020:RESET_B *303:8 0
129 *1028:RESET_B *1029:C 0
130 *1028:RESET_B *298:376 0
131 *1035:RESET_B *1029:B 1.39726e-05
132 *1069:RESET_B *298:204 6.52148e-05
133 *1139:RESET_B *298:324 0.000217136
134 *1182:RESET_B *298:439 8.46044e-06
135 *1188:RESET_B *298:645 0
136 *297:8 *1162:C 0
137 *297:10 *1162:C 0
138 *297:97 *1148:C 1.41029e-05
139 *297:171 *303:8 0.000139787
140 *297:173 *303:8 3.90513e-05
141 *297:175 *303:8 6.42242e-05
142 *297:181 *303:8 0.000269706
143 *297:274 *298:54 0.000261178
144 *297:286 *298:37 0
145 *297:296 *298:229 0
146 *297:308 *298:229 0
147 *297:400 *298:384 0.000103004
148 *297:474 *304:10 0
149 *297:673 *967:A 1.07719e-05
150 *297:697 *967:A 0
151 *949:A *1020:RESET_B 9.69119e-06
152 *949:A *1056:RESET_B 0.000219397
153 *949:A *297:474 7.03295e-05
154 *951:A *297:233 0.000359997
155 *967:B *297:673 0.000103267
156 *969:A2 *297:667 5.52302e-05
157 *978:CLK *978:RESET_B 9.76689e-05
158 *978:D *978:RESET_B 4.35195e-05
159 *984:A1 *985:RESET_B 6.3627e-05
160 *984:A2 *985:RESET_B 0.000184645
161 *984:B1_N *985:RESET_B 0.000273269
162 *985:CLK *297:165 0.000312209
163 *985:D *985:RESET_B 0.000320031
164 *985:D *297:165 7.39458e-05
165 *990:B *297:697 7.61932e-05
166 *993:D *993:RESET_B 0.000123613
167 *1000:CLK *1084:RESET_B 0.000139087
168 *1005:A1 *297:165 0.000314697
169 *1005:B1_N *297:165 5.52302e-05
170 *1006:D *1006:RESET_B 2.0714e-05
171 *1006:D *297:165 0.000221433
172 *1006:D *297:171 7.3237e-05
173 *1010:B *1188:RESET_B 4.46186e-06
174 *1011:A *1188:RESET_B 0
175 *1013:CLK *297:175 1.17968e-05
176 *1013:CLK *297:181 2.37817e-05
177 *1022:A *297:461 0
178 *1022:A *297:474 0
179 *1023:B1 *297:450 6.79059e-05
180 *1023:B1 *297:461 0
181 *1024:A *1175:RESET_B 3.69047e-06
182 *1025:A *297:450 0.000189266
183 *1025:B *1175:RESET_B 4.46231e-06
184 *1025:B *297:450 0.000101545
185 *1028:D *297:400 0
186 *1028:D *297:450 0
187 *1029:A *1035:RESET_B 5.71472e-05
188 *1030:B1 *1035:RESET_B 7.65689e-05
189 *1033:A1 *1028:RESET_B 0
190 *1034:CLK *1035:RESET_B 0
191 *1034:D *1035:RESET_B 0
192 *1039:A *1034:RESET_B 4.58194e-05
193 *1039:B *1035:RESET_B 0
194 *1041:CLK *1140:RESET_B 1.00477e-05
195 *1041:CLK *297:341 3.42707e-05
196 *1041:D *1034:RESET_B 0.000340606
197 *1041:D *1041:RESET_B 2.00632e-05
198 *1041:D *297:357 9.85893e-05
199 *1048:CLK *992:RESET_B 1.58163e-05
200 *1048:CLK *297:667 5.19842e-06
201 *1049:CLK *297:645 6.87574e-05
202 *1049:D *1049:RESET_B 9.7659e-05
203 *1049:D *297:645 6.05161e-06
204 *1055:CLK *1055:RESET_B 0.000162596
205 *1062:CLK *1062:RESET_B 0.000185124
206 *1062:CLK *297:310 3.34366e-05
207 *1062:CLK *297:312 0.0001406
208 *1062:CLK *297:323 4.97876e-05
209 *1062:D *1062:RESET_B 0.000121339
210 *1063:D *1013:RESET_B 0.000129868
211 *1063:D *297:181 0.000217478
212 *1069:CLK *1069:RESET_B 1.92905e-05
213 *1069:D *1069:RESET_B 0.000140815
214 *1070:CLK *1070:RESET_B 6.81335e-05
215 *1070:D *1007:RESET_B 1.92905e-05
216 *1070:D *297:171 3.34366e-05
217 *1070:D *297:173 0.000290993
218 *1071:A *297:233 0
219 *1071:A *297:247 0
220 *1076:D *1076:RESET_B 0.000124726
221 *1079:B1 *999:RESET_B 7.32272e-05
222 *1082:A1 *297:247 0.000201127
223 *1083:D *297:247 0
224 *1090:D *297:286 0.000125724
225 *1091:D *297:286 0
226 *1091:D *297:288 0
227 *1097:CLK *1097:RESET_B 8.71192e-05
228 *1101:A *297:296 7.8327e-05
229 *1102:A *1104:RESET_B 9.71197e-05
230 *1103:A1 *1104:RESET_B 7.81015e-05
231 *1105:D *1069:RESET_B 0
232 *1105:D *1105:RESET_B 3.02581e-06
233 *1105:D *297:296 0.000292708
234 *1105:D *297:302 6.62883e-05
235 *1105:D *297:308 0
236 *1108:B *1111:RESET_B 0.000136958
237 *1109:A *1111:RESET_B 1.74352e-05
238 *1109:B *1111:RESET_B 6.86792e-05
239 *1110:A1 *1111:RESET_B 2.05627e-05
240 *1112:D *1111:RESET_B 9.7992e-05
241 *1112:D *297:310 0
242 *1113:A *1118:RESET_B 5.52238e-05
243 *1115:A *1118:RESET_B 8.7457e-05
244 *1116:B *297:327 0
245 *1118:CLK *1118:RESET_B 0.000696034
246 *1118:D *1118:RESET_B 4.85567e-05
247 *1125:D *297:122 0
248 *1126:CLK *1126:RESET_B 4.70078e-05
249 *1126:D *1126:RESET_B 8.94846e-05
250 *1130:A *297:327 0
251 *1130:B *1132:RESET_B 0.000154027
252 *1133:D *1132:RESET_B 0.000141729
253 *1135:A1 *1139:RESET_B 0.000135947
254 *1135:B1 *1139:RESET_B 0.000142856
255 *1140:CLK *1140:RESET_B 6.64885e-05
256 *1140:CLK *297:337 5.83233e-05
257 *1140:CLK *297:341 5.84267e-05
258 *1140:D *1140:RESET_B 0.000343919
259 *1140:D *297:357 8.25843e-06
260 *1146:CLK *1146:RESET_B 8.33875e-05
261 *1146:CLK *297:113 7.05447e-05
262 *1146:D *1146:RESET_B 5.25816e-05
263 *1148:A *297:97 0
264 *1151:A *1147:RESET_B 0
265 *1151:A *297:76 1.72798e-05
266 *1152:A1 *297:76 0.000314139
267 *1153:D *1182:RESET_B 0.000122091
268 *1157:B *1160:RESET_B 5.33005e-05
269 *1157:B *297:44 5.59013e-05
270 *1157:B *297:56 8.17274e-05
271 *1158:B *297:44 0.000168709
272 *1159:A1 *297:56 0.0001399
273 *1159:B1_N *297:56 4.57445e-05
274 *1160:D *1160:RESET_B 5.66258e-05
275 *1161:CLK *1161:RESET_B 8.25897e-05
276 *1162:A *297:10 1.18064e-05
277 *1162:B *1168:RESET_B 0.000139907
278 *1164:A *1161:RESET_B 5.52302e-05
279 *1164:A *297:10 0.000148903
280 *1164:A *297:20 0.000125731
281 *1164:A *297:44 5.58941e-05
282 *1164:B *1161:RESET_B 4.81734e-05
283 *1166:A1 *1167:RESET_B 0.000171148
284 *1168:CLK *1168:RESET_B 2.44318e-05
285 *1168:CLK *297:10 0.00012401
286 *1171:A *1174:RESET_B 0
287 *1171:B *1174:RESET_B 6.97972e-05
288 *1172:A *1174:RESET_B 7.26935e-05
289 *1179:A *1014:RESET_B 0.000313192
290 *1179:A *297:425 0.000181804
291 *1180:A1 *1174:RESET_B 0.000195555
292 *1180:A1 *1175:RESET_B 1.58163e-05
293 *1180:A1 *297:425 2.31791e-05
294 *1180:A2 *1174:RESET_B 5.9483e-05
295 *1180:A2 *297:425 9.10431e-06
296 *1181:D *297:425 0
297 *1188:CLK *1188:RESET_B 0.000156427
298 *1188:D *1188:RESET_B 0.000121339
299 *1189:D *297:97 0.000266092
300 *33:15 *1146:RESET_B 9.23759e-05
301 *40:8 *297:327 9.95752e-05
302 *40:10 *297:327 0.000119618
303 *40:16 *297:327 0.000277524
304 *40:16 *297:331 0.000370567
305 *40:16 *297:333 0.000102545
306 *40:16 *297:335 5.83304e-05
307 *40:16 *297:337 0.000166983
308 *40:95 *297:323 3.17148e-05
309 *40:95 *297:325 0.000227729
310 *40:95 *297:327 0.00014209
311 *40:110 *297:323 0.000106456
312 *42:44 *1076:RESET_B 0.000266993
313 *42:120 *1090:RESET_B 1.12381e-05
314 *42:120 *1097:RESET_B 3.80414e-05
315 *42:120 *297:274 4.29492e-05
316 *42:120 *297:276 3.80385e-05
317 *43:12 *297:171 0
318 *43:23 *297:171 0
319 *43:39 *297:171 0
320 *43:54 *1084:RESET_B 0.00019237
321 *43:79 *297:173 0.000153889
322 *43:79 *297:175 5.33882e-05
323 *44:16 *297:400 0
324 *44:85 *1014:RESET_B 0
325 *45:16 *297:44 0.000569
326 *45:18 *297:10 7.90803e-05
327 *45:18 *297:20 0.000114759
328 *45:18 *297:44 6.98302e-05
329 *45:55 *1160:RESET_B 8.79458e-05
330 *46:55 *985:RESET_B 0.000486447
331 *47:12 *297:637 0
332 *47:21 *297:637 0
333 *47:31 *297:697 0.000177948
334 *47:40 *992:RESET_B 0.000117196
335 *47:40 *297:697 3.34295e-05
336 *47:83 *986:RESET_B 4.96155e-05
337 *47:83 *297:645 0.000151071
338 *47:99 *297:113 0.000347354
339 *47:99 *297:122 0.000264844
340 *47:99 *297:637 0.000117144
341 *47:120 *1126:RESET_B 6.62868e-05
342 *47:120 *1189:RESET_B 2.29097e-05
343 *47:120 *297:99 4.70078e-05
344 *48:14 *297:667 7.95313e-05
345 *49:12 *971:RESET_B 5.16759e-05
346 *49:12 *297:667 4.88637e-05
347 *61:6 *979:RESET_B 2.81497e-05
348 *61:6 *985:RESET_B 0.000242087
349 *61:6 *297:126 4.88637e-05
350 *64:10 *985:RESET_B 2.58997e-05
351 *73:12 *992:RESET_B 1.72894e-05
352 *89:10 *1007:RESET_B 0.000134714
353 *96:12 *297:474 2.51343e-06
354 *99:10 *297:474 3.88139e-05
355 *105:12 *297:450 3.10821e-05
356 *105:12 *297:461 5.75953e-05
357 *105:12 *297:474 2.26327e-05
358 *110:12 *1028:RESET_B 0
359 *113:12 *1035:RESET_B 0
360 *117:14 *1034:RESET_B 0.000183873
361 *117:14 *1035:RESET_B 0.000633032
362 *122:8 *1034:RESET_B 0.000128476
363 *138:12 *1020:RESET_B 0.000177234
364 *152:10 *297:233 9.24825e-05
365 *154:12 *297:233 0
366 *155:12 *297:233 0
367 *159:8 *297:247 0.000320024
368 *161:12 *999:RESET_B 5.33005e-05
369 *180:12 *1098:RESET_B 5.52238e-05
370 *182:10 *297:292 4.66203e-05
371 *182:10 *297:296 5.43491e-05
372 *187:12 *297:308 0
373 *201:10 *297:327 0
374 *213:12 *1132:RESET_B 3.67968e-05
375 *215:10 *1139:RESET_B 4.28984e-05
376 *230:12 *297:76 7.83587e-05
377 *230:12 *297:88 7.39741e-05
378 *230:12 *297:97 0.000117189
379 *231:12 *297:76 2.34204e-05
380 *231:12 *297:88 2.8266e-06
381 *235:8 *297:56 0
382 *242:12 *1161:RESET_B 0.00043993
383 *247:8 *1167:RESET_B 4.58194e-05
384 *249:16 *1168:RESET_B 0.000179731
385 *249:16 *297:8 1.08359e-05
386 *249:16 *297:10 3.67405e-05
387 *249:18 *1174:RESET_B 8.81343e-05
388 *254:10 *1174:RESET_B 0
389 *279:10 *971:RESET_B 0
390 *279:10 *992:RESET_B 0
391 *279:10 *297:97 0
392 *279:10 *297:697 0
393 *280:12 *1147:RESET_B 9.30466e-05
394 *280:12 *297:649 0.000149812
395 *280:12 *297:661 0.000269102
396 *280:14 *1147:RESET_B 0
397 *280:14 *297:44 0
398 *281:10 *297:88 0
399 *281:10 *297:97 0
400 *281:10 *297:113 0
401 *281:10 *297:122 0
402 *281:10 *297:637 0
403 *283:10 *297:649 0.000273387
404 *283:10 *297:661 0.000510179
405 *290:14 *297:286 0.000242467
406 *290:14 *297:288 0.000103152
407 *290:14 *297:290 4.16114e-05
408 *290:14 *297:292 0.000102815
409 *294:14 *297:274 4.46186e-06
410 *295:14 *297:247 0
411 *295:14 *297:254 0
412 *295:14 *297:274 0
413 *296:12 *297:233 0.000193175
414 *296:12 *297:247 0.000393579
415 *296:12 *297:254 7.58571e-05
416 *296:12 *297:274 3.38229e-05
*RES
1 *1216:X *297:8 23.1839 
2 *297:8 *297:10 3.00893 
3 *297:10 *1167:RESET_B 6.20536 
4 *297:10 *297:20 1.64286 
5 *297:20 *1161:RESET_B 10.3304 
6 *297:20 *297:44 15.5893 
7 *297:44 *1160:RESET_B 1.70536 
8 *297:44 *297:56 10.6786 
9 *297:56 *1154:RESET_B 4.5 
10 *297:56 *1147:RESET_B 9.48214 
11 *1147:RESET_B *297:76 11.1518 
12 *297:76 *1182:RESET_B 13.8125 
13 *297:76 *297:88 1.03571 
14 *297:88 *1153:RESET_B 4.5 
15 *297:88 *297:97 15.8571 
16 *297:97 *297:99 1.35714 
17 *297:99 *297:101 4.5 
18 *297:101 *1146:RESET_B 6.72321 
19 *297:101 *297:113 5.28571 
20 *297:113 *1125:RESET_B 4.5 
21 *297:113 *297:122 4 
22 *297:122 *297:126 6.67857 
23 *297:126 *979:RESET_B 0.473214 
24 *297:126 *985:RESET_B 26.5893 
25 *985:RESET_B *297:165 18.1696 
26 *297:165 *297:171 9.625 
27 *297:171 *297:173 4.67857 
28 *297:173 *297:175 1.64286 
29 *297:175 *297:181 4.125 
30 *297:181 *1013:RESET_B 6.14286 
31 *297:181 *978:RESET_B 16.0625 
32 *978:RESET_B *1188:RESET_B 17.7411 
33 *297:175 *1063:RESET_B 4.5 
34 *297:173 *1007:RESET_B 8.66964 
35 *297:171 *1070:RESET_B 9.8125 
36 *1070:RESET_B *297:233 14.1696 
37 *297:233 *1077:RESET_B 5.38393 
38 *297:233 *297:247 10.5 
39 *297:247 *1083:RESET_B 4.5 
40 *297:247 *297:254 2.55357 
41 *297:254 *999:RESET_B 17.2232 
42 *297:254 *297:274 16.6607 
43 *297:274 *297:276 1.35714 
44 *297:276 *1097:RESET_B 3.34821 
45 *297:276 *297:286 14.3393 
46 *297:286 *297:288 3.46429 
47 *297:288 *297:290 1.64286 
48 *297:290 *297:292 4.98214 
49 *297:292 *297:296 9.48214 
50 *297:296 *297:302 7.10714 
51 *297:302 *297:308 8 
52 *297:308 *297:310 3.46429 
53 *297:310 *297:312 1.79464 
54 *297:312 *1112:RESET_B 5.3125 
55 *297:312 *297:323 2.40179 
56 *297:323 *297:325 2.85714 
57 *297:325 *297:327 8.01786 
58 *297:327 *297:331 5.82143 
59 *297:331 *297:333 1.33929 
60 *297:333 *297:335 0.732143 
61 *297:335 *297:337 2.85714 
62 *297:337 *297:341 2.17857 
63 *297:341 *1140:RESET_B 12.9554 
64 *297:341 *297:357 6.67857 
65 *297:357 *1034:RESET_B 15.0446 
66 *1034:RESET_B *1035:RESET_B 18.8482 
67 *1035:RESET_B *1028:RESET_B 13.9821 
68 *1028:RESET_B *297:400 9.40179 
69 *297:400 *1175:RESET_B 15.2768 
70 *1175:RESET_B *297:412 4.5 
71 *297:412 *1174:RESET_B 14.6429 
72 *297:412 *297:425 5.33929 
73 *297:425 *1181:RESET_B 4.5 
74 *297:425 *1014:RESET_B 15.2946 
75 *297:400 *297:450 15.4821 
76 *297:450 *1027:RESET_B 4.5 
77 *297:450 *297:461 2.60714 
78 *297:461 *1021:RESET_B 4.5 
79 *297:461 *297:474 18.3571 
80 *297:474 *1056:RESET_B 2.11607 
81 *297:474 *1020:RESET_B 12.1607 
82 *297:357 *1041:RESET_B 0.473214 
83 *297:337 *1042:RESET_B 4.5 
84 *297:335 *1139:RESET_B 13.6339 
85 *297:333 *1133:RESET_B 4.5 
86 *297:331 *1055:RESET_B 7.86607 
87 *297:327 *1132:RESET_B 12.3661 
88 *297:325 *1119:RESET_B 4.5 
89 *297:323 *1118:RESET_B 13.7768 
90 *297:310 *1062:RESET_B 9.90179 
91 *297:308 *1111:RESET_B 12.3661 
92 *297:302 *1069:RESET_B 12.3125 
93 *297:296 *1105:RESET_B 0.473214 
94 *297:292 *1104:RESET_B 7.84821 
95 *297:290 *1076:RESET_B 7.02679 
96 *297:288 *1098:RESET_B 7.84821 
97 *297:286 *1091:RESET_B 4.5 
98 *297:274 *1090:RESET_B 0.473214 
99 *297:165 *1006:RESET_B 0.473214 
100 *297:122 *297:637 11 
101 *297:637 *986:RESET_B 0.883929 
102 *297:637 *297:645 5.05357 
103 *297:645 *297:649 7.96429 
104 *297:649 *972:RESET_B 5.38393 
105 *297:649 *297:661 11 
106 *297:661 *297:667 11.625 
107 *297:667 *297:673 10.0714 
108 *297:673 *993:RESET_B 3.75893 
109 *297:673 *297:681 4.5 
110 *297:681 *297:697 27.3929 
111 *297:697 *1084:RESET_B 8.6875 
112 *297:697 *1000:RESET_B 0.473214 
113 *297:681 *992:RESET_B 14.8304 
114 *297:667 *971:RESET_B 8.74107 
115 *297:661 *1048:RESET_B 0.883929 
116 *297:645 *1049:RESET_B 2.11607 
117 *297:99 *1189:RESET_B 0.901786 
118 *297:97 *1126:RESET_B 6.77679 
119 *297:8 *1168:RESET_B 10.3036 
*END

*D_NET *298 0.075086
*CONN
*I *1092:C I *D sky130_fd_sc_hd__nand3_1
*I *1085:C I *D sky130_fd_sc_hd__nand3_1
*I *1071:C I *D sky130_fd_sc_hd__nand3_1
*I *1064:C I *D sky130_fd_sc_hd__nand3_1
*I *1057:C I *D sky130_fd_sc_hd__nand3_1
*I *1058:A2 I *D sky130_fd_sc_hd__a21o_1
*I *1065:A2 I *D sky130_fd_sc_hd__a21o_1
*I *1072:A2 I *D sky130_fd_sc_hd__a21o_1
*I *1100:A2 I *D sky130_fd_sc_hd__a21o_1
*I *1106:C I *D sky130_fd_sc_hd__nand3_1
*I *1113:C I *D sky130_fd_sc_hd__nand3_1
*I *1128:A2 I *D sky130_fd_sc_hd__a21o_1
*I *1022:C I *D sky130_fd_sc_hd__nand3_1
*I *1183:C I *D sky130_fd_sc_hd__nand3_1
*I *1184:A2 I *D sky130_fd_sc_hd__a21o_1
*I *980:C I *D sky130_fd_sc_hd__nand3_1
*I *981:A2 I *D sky130_fd_sc_hd__a21o_1
*I *1002:A2 I *D sky130_fd_sc_hd__a21o_1
*I *1001:C I *D sky130_fd_sc_hd__nand3_1
*I *974:A2 I *D sky130_fd_sc_hd__a21o_1
*I *973:C I *D sky130_fd_sc_hd__nand3_1
*I *1008:C I *D sky130_fd_sc_hd__nand3_1
*I *1009:A2 I *D sky130_fd_sc_hd__a21o_1
*I *1015:C I *D sky130_fd_sc_hd__nand3_1
*I *1016:A2 I *D sky130_fd_sc_hd__a21o_1
*I *1050:C I *D sky130_fd_sc_hd__nand3_1
*I *1051:A2 I *D sky130_fd_sc_hd__a21o_1
*I *1023:A2 I *D sky130_fd_sc_hd__a21o_1
*I *1163:A2 I *D sky130_fd_sc_hd__a21o_1
*I *1162:C I *D sky130_fd_sc_hd__nand3_1
*I *1169:C I *D sky130_fd_sc_hd__nand3_1
*I *1170:A2 I *D sky130_fd_sc_hd__a21o_1
*I *1156:A2 I *D sky130_fd_sc_hd__a21o_1
*I *1148:C I *D sky130_fd_sc_hd__nand3_1
*I *1149:A2 I *D sky130_fd_sc_hd__a21o_1
*I *1142:A2 I *D sky130_fd_sc_hd__a21o_1
*I *1141:C I *D sky130_fd_sc_hd__nand3_1
*I *1155:C I *D sky130_fd_sc_hd__nand3_1
*I *1177:A2 I *D sky130_fd_sc_hd__a21o_1
*I *1176:C I *D sky130_fd_sc_hd__nand3_1
*I *1029:C I *D sky130_fd_sc_hd__nand3_1
*I *1030:A2 I *D sky130_fd_sc_hd__a21o_1
*I *1036:C I *D sky130_fd_sc_hd__nand3_1
*I *1037:A2 I *D sky130_fd_sc_hd__a21o_1
*I *1135:A2 I *D sky130_fd_sc_hd__a21o_1
*I *1134:C I *D sky130_fd_sc_hd__nand3_1
*I *1127:C I *D sky130_fd_sc_hd__nand3_1
*I *1114:A2 I *D sky130_fd_sc_hd__a21o_1
*I *1107:A2 I *D sky130_fd_sc_hd__a21o_1
*I *1099:C I *D sky130_fd_sc_hd__nand3_1
*I *1044:A2 I *D sky130_fd_sc_hd__a21o_1
*I *1043:C I *D sky130_fd_sc_hd__nand3_1
*I *1120:C I *D sky130_fd_sc_hd__nand3_1
*I *1121:A2 I *D sky130_fd_sc_hd__a21o_1
*I *964:C I *D sky130_fd_sc_hd__nand3_1
*I *965:A2 I *D sky130_fd_sc_hd__a21o_1
*I *987:C I *D sky130_fd_sc_hd__nand3_1
*I *988:A2 I *D sky130_fd_sc_hd__a21o_1
*I *994:C I *D sky130_fd_sc_hd__nand3_1
*I *995:A2 I *D sky130_fd_sc_hd__a21o_1
*I *1078:C I *D sky130_fd_sc_hd__nand3_1
*I *1079:A2 I *D sky130_fd_sc_hd__a21o_1
*I *1086:A2 I *D sky130_fd_sc_hd__a21o_1
*I *1093:A2 I *D sky130_fd_sc_hd__a21o_1
*I *1217:X O *D sky130_fd_sc_hd__buf_12
*CAP
1 *1092:C 4.21262e-05
2 *1085:C 0
3 *1071:C 0.000235176
4 *1064:C 0.000304905
5 *1057:C 3.72704e-05
6 *1058:A2 0.000190874
7 *1065:A2 2.35844e-05
8 *1072:A2 0
9 *1100:A2 0
10 *1106:C 0
11 *1113:C 0
12 *1128:A2 0.00022702
13 *1022:C 0
14 *1183:C 0.000297622
15 *1184:A2 2.23854e-05
16 *980:C 0.000133007
17 *981:A2 0
18 *1002:A2 0.000272087
19 *1001:C 0
20 *974:A2 0.00014103
21 *973:C 0
22 *1008:C 2.23854e-05
23 *1009:A2 0.000197775
24 *1015:C 0.00011598
25 *1016:A2 0
26 *1050:C 6.48213e-05
27 *1051:A2 1.85405e-05
28 *1023:A2 0.000147333
29 *1163:A2 0
30 *1162:C 0.000302811
31 *1169:C 0
32 *1170:A2 8.59335e-05
33 *1156:A2 0
34 *1148:C 5.31375e-05
35 *1149:A2 0
36 *1142:A2 0.000466058
37 *1141:C 0
38 *1155:C 3.21518e-05
39 *1177:A2 0.00038732
40 *1176:C 0
41 *1029:C 0.000114092
42 *1030:A2 0
43 *1036:C 0
44 *1037:A2 0.000249481
45 *1135:A2 6.72058e-05
46 *1134:C 0.00011601
47 *1127:C 0.000241852
48 *1114:A2 9.66451e-05
49 *1107:A2 0.000161756
50 *1099:C 0.000188125
51 *1044:A2 0
52 *1043:C 0
53 *1120:C 0
54 *1121:A2 0.000233809
55 *964:C 0
56 *965:A2 4.62439e-05
57 *987:C 0
58 *988:A2 1.02833e-05
59 *994:C 0
60 *995:A2 2.86091e-05
61 *1078:C 0
62 *1079:A2 0
63 *1086:A2 4.46803e-05
64 *1093:A2 0.000230637
65 *1217:X 0.000131139
66 *298:802 0.000621043
67 *298:789 0.00109242
68 *298:780 0.000478323
69 *298:719 0.000619662
70 *298:701 0.000261489
71 *298:669 0.000588749
72 *298:667 0.00105175
73 *298:647 0.00014103
74 *298:645 0.00124002
75 *298:641 0.00116133
76 *298:632 0.000502126
77 *298:615 0.000748706
78 *298:600 0.000576237
79 *298:587 0.000445381
80 *298:583 0.000679634
81 *298:572 0.000725932
82 *298:547 0.000599256
83 *298:516 0.00067149
84 *298:496 0.000230372
85 *298:492 0.000804198
86 *298:443 0.000629664
87 *298:439 0.00055029
88 *298:429 0.000966214
89 *298:405 0.000419472
90 *298:403 0.000743918
91 *298:399 0.000676511
92 *298:390 0.000548388
93 *298:384 0.00165707
94 *298:376 0.0015595
95 *298:365 0.000561724
96 *298:354 0.000666171
97 *298:345 0.000397546
98 *298:326 0.000489712
99 *298:324 0.00168342
100 *298:309 0.00159561
101 *298:294 0.000914446
102 *298:275 0.00095268
103 *298:269 0.000764859
104 *298:265 0.000557307
105 *298:250 0.00054813
106 *298:244 0.000419097
107 *298:229 0.000641527
108 *298:221 0.000259882
109 *298:204 0.000768585
110 *298:196 0.000938593
111 *298:194 0.000785615
112 *298:186 0.000324154
113 *298:154 0.000610907
114 *298:148 0.000506213
115 *298:144 0.000460042
116 *298:135 0.000520923
117 *298:122 0.00110859
118 *298:113 0.000961004
119 *298:102 0.000497931
120 *298:87 0.000572768
121 *298:72 0.00121591
122 *298:63 0.00113978
123 *298:54 0.000466429
124 *298:37 0.000695051
125 *298:27 0.000820302
126 *298:14 0.000768837
127 *298:10 0.000261942
128 *1002:A2 *1001:B 1.87452e-05
129 *1002:A2 *1002:A1 5.25882e-05
130 *1002:A2 *306:14 4.08207e-05
131 *1002:A2 *307:10 0
132 *1009:A2 *1008:B 3.56976e-05
133 *1009:A2 *304:10 5.57914e-05
134 *1023:A2 *1023:A1 4.88546e-05
135 *1023:A2 *303:14 0
136 *1029:C *303:14 0
137 *1037:A2 *1037:A1 0.000357516
138 *1064:C *302:10 0.000131481
139 *298:87 *307:10 2.84398e-05
140 *298:354 *1029:B 1.97695e-05
141 *298:354 *302:18 0.000356035
142 *298:365 *1029:B 6.3056e-05
143 *298:365 *1030:A1 2.89016e-05
144 *298:376 *303:14 0
145 *298:547 *302:18 0
146 *298:587 *1016:A1 1.02504e-05
147 *298:587 *303:8 0
148 *298:587 *304:10 0
149 *298:600 *1016:A1 0.000119507
150 *298:600 *303:8 0.000103728
151 *298:615 *303:8 8.40012e-05
152 *298:615 *305:10 0.000103993
153 *298:632 *1008:B 7.03295e-05
154 *951:A *1064:C 0.000219711
155 *964:A *965:A2 0.000104956
156 *964:A *298:122 1.74352e-05
157 *965:A1 *965:A2 5.71472e-05
158 *965:A1 *298:135 0.000150539
159 *965:B1 *965:A2 1.04232e-05
160 *971:CLK *298:113 1.3701e-05
161 *971:CLK *298:122 0.000275335
162 *971:D *298:122 2.95726e-05
163 *971:RESET_B *298:122 4.85567e-05
164 *973:B *974:A2 6.26956e-05
165 *978:D *298:645 7.83659e-05
166 *980:B *980:C 4.5622e-05
167 *981:A1 *980:C 5.52238e-05
168 *981:B1 *980:C 0.000139907
169 *984:A2 *298:667 0
170 *985:D *298:667 0
171 *985:RESET_B *298:667 0
172 *987:A *988:A2 1.44193e-05
173 *987:A *298:102 0.000104416
174 *987:A *298:113 4.15725e-05
175 *987:B *298:113 2.32013e-05
176 *987:B *298:122 1.40034e-05
177 *991:A2 *298:102 0.00014285
178 *994:A *298:72 1.92789e-05
179 *995:A1 *995:A2 1.5239e-05
180 *995:A1 *298:87 2.87555e-06
181 *995:B1 *995:A2 8.56315e-07
182 *999:RESET_B *298:54 0.000122101
183 *999:RESET_B *298:63 9.21719e-05
184 *999:RESET_B *298:72 0.000589993
185 *1001:A *1002:A2 0.000176154
186 *1008:A *1009:A2 0
187 *1008:A *298:632 0.000232399
188 *1010:A *298:641 5.71472e-05
189 *1010:A *298:645 0
190 *1010:B *298:645 0
191 *1012:B1_N *298:645 0
192 *1015:A *298:600 0.000223599
193 *1015:A *298:615 3.34366e-05
194 *1017:B *1015:C 5.52302e-05
195 *1024:A *1023:A2 5.52238e-05
196 *1026:A2 *1023:A2 0.000184745
197 *1028:CLK *298:384 1.92789e-05
198 *1028:RESET_B *1029:C 0
199 *1028:RESET_B *298:376 0
200 *1032:B *1029:C 0
201 *1032:B *298:365 0.000142856
202 *1033:A1 *1029:C 7.8327e-05
203 *1034:CLK *298:326 0
204 *1036:A *1037:A2 7.05143e-06
205 *1036:A *298:326 7.05143e-06
206 *1037:B1 *1037:A2 5.33005e-05
207 *1038:A *1037:A2 0.000128233
208 *1038:B *1037:A2 0
209 *1039:B *1037:A2 4.98055e-06
210 *1039:B *298:326 1.02969e-05
211 *1039:B *298:345 9.87983e-06
212 *1040:A2 *1037:A2 6.86693e-05
213 *1043:A *298:148 0.000250193
214 *1043:A *298:154 1.02504e-05
215 *1044:A1 *298:144 5.71472e-05
216 *1045:A *298:148 4.80729e-05
217 *1045:A *298:154 0.000202842
218 *1050:A *1051:A2 9.90431e-05
219 *1050:A *298:572 0.00010096
220 *1051:A1 *1050:C 0
221 *1051:A1 *1051:A2 5.71472e-05
222 *1051:A1 *298:572 1.21289e-05
223 *1057:A *1058:A2 0
224 *1064:B *1064:C 0.000615986
225 *1065:B1 *298:802 2.78729e-05
226 *1066:B *1064:C 5.71472e-05
227 *1066:B *1065:A2 0
228 *1067:A *298:802 0
229 *1068:A2 *1064:C 3.1521e-05
230 *1068:A2 *298:802 0.000172829
231 *1069:CLK *298:204 5.52302e-05
232 *1069:RESET_B *298:204 6.52148e-05
233 *1071:A *1071:C 9.58126e-05
234 *1072:A1 *298:196 0
235 *1072:A1 *298:789 5.65955e-05
236 *1072:B1 *298:196 0
237 *1078:B *298:63 0.000258011
238 *1079:B1 *298:63 0.000139907
239 *1083:CLK *1086:A2 5.33005e-05
240 *1083:CLK *298:37 0.000137561
241 *1085:A *298:37 1.51571e-05
242 *1085:A *298:194 6.05161e-06
243 *1085:B *298:194 1.86434e-05
244 *1087:B *1086:A2 5.49489e-05
245 *1089:A1 *298:37 0.000166632
246 *1089:A1 *298:194 0.000201127
247 *1089:A2 *298:37 9.8621e-05
248 *1089:B1_N *298:186 6.05161e-06
249 *1089:B1_N *298:194 8.43535e-06
250 *1091:D *298:194 3.006e-05
251 *1092:A *1093:A2 0.000128233
252 *1092:B *1093:A2 0.000389161
253 *1093:B1 *1093:A2 4.75812e-05
254 *1095:B *1093:A2 0.000126439
255 *1095:B *298:10 0
256 *1100:A1 *1099:C 0.00033972
257 *1100:A1 *298:221 4.65129e-06
258 *1100:B1 *1099:C 9.60939e-05
259 *1100:B1 *298:204 1.33343e-05
260 *1100:B1 *298:221 0
261 *1101:A *298:229 4.1331e-06
262 *1101:B *1099:C 8.25843e-06
263 *1101:B *298:204 1.15281e-05
264 *1101:B *298:221 6.70062e-06
265 *1105:D *298:229 0
266 *1106:A *298:244 0.00013053
267 *1106:B *298:244 4.98055e-06
268 *1106:B *298:250 2.76151e-05
269 *1107:A1 *1107:A2 4.88637e-05
270 *1107:B1 *1107:A2 0.00018372
271 *1107:B1 *298:244 6.74911e-05
272 *1108:A *298:244 0.000148196
273 *1113:B *1114:A2 0.000217141
274 *1113:B *298:250 3.17148e-05
275 *1113:B *298:265 0.000184782
276 *1114:B1 *1114:A2 9.90367e-05
277 *1115:B *1114:A2 2.51343e-06
278 *1115:B *298:265 2.97829e-05
279 *1116:B *298:269 0
280 *1117:A2 *298:265 4.038e-06
281 *1117:A2 *298:269 3.25071e-05
282 *1117:B1_N *298:269 7.83587e-05
283 *1120:A *1121:A2 0.000115379
284 *1121:A1 *1121:A2 0.000205763
285 *1127:A *1127:C 5.52238e-05
286 *1128:A1 *1127:C 0.000130759
287 *1128:B1 *1127:C 0
288 *1129:A *298:294 9.0105e-05
289 *1130:A *1128:A2 3.34295e-05
290 *1132:D *298:294 1.78447e-05
291 *1134:A *1134:C 5.52238e-05
292 *1134:A *1135:A2 0
293 *1134:A *298:294 2.61337e-05
294 *1134:A *298:309 4.43256e-05
295 *1134:B *1134:C 4.27935e-05
296 *1135:A1 *298:294 1.46624e-05
297 *1135:B1 *1135:A2 0
298 *1139:RESET_B *298:324 0.000217136
299 *1141:B *1142:A2 9.13377e-05
300 *1143:B *1142:A2 2.05938e-05
301 *1144:A *1142:A2 0
302 *1144:B *1142:A2 7.17136e-05
303 *1145:B1_N *1142:A2 0.000123295
304 *1147:D *1142:A2 5.52302e-05
305 *1149:A1 *298:439 2.27416e-05
306 *1149:A1 *298:443 0.000101545
307 *1149:B1 *298:439 0.000175603
308 *1153:D *298:429 0
309 *1155:A *298:403 7.79781e-06
310 *1155:A *298:429 1.19402e-05
311 *1156:A1 *298:403 0.000195481
312 *1162:A *1162:C 0
313 *1162:B *1162:C 9.90367e-05
314 *1163:B1 *1162:C 0
315 *1166:A1 *1162:C 0.000202001
316 *1166:A2 *1162:C 8.87591e-05
317 *1166:B1_N *1162:C 9.22103e-06
318 *1167:CLK *1170:A2 1.04232e-05
319 *1167:D *1162:C 0
320 *1169:A *1170:A2 5.02831e-05
321 *1170:A1 *1170:A2 1.21289e-05
322 *1171:A *298:496 0
323 *1173:B1_N *1170:A2 0
324 *1178:A *298:390 1.41706e-05
325 *1180:A2 *298:384 0.000312209
326 *1180:B1_N *298:384 0.000185643
327 *1180:B1_N *298:390 2.56694e-05
328 *1181:D *298:384 0.000144773
329 *1182:RESET_B *298:439 8.46044e-06
330 *1184:A1 *1183:C 0.000372507
331 *1184:B1 *1183:C 7.40586e-05
332 *1188:CLK *298:645 0
333 *1188:RESET_B *298:645 0
334 *1208:A *1093:A2 1.02504e-05
335 *39:51 *1183:C 0
336 *41:10 *298:547 4.35131e-05
337 *41:38 *298:547 0.000101472
338 *41:56 *298:547 6.04162e-05
339 *41:56 *298:572 1.09595e-05
340 *42:10 *298:196 0.000192585
341 *42:10 *298:204 0.000154762
342 *42:34 *298:196 0.000248493
343 *42:88 *298:194 0.000192585
344 *42:88 *298:196 0.000153047
345 *42:103 *298:194 0.000368111
346 *45:10 *298:429 2.62984e-05
347 *46:12 *298:667 0
348 *46:18 *298:667 0
349 *46:22 *298:645 0
350 *46:22 *298:667 0
351 *46:79 *298:667 0
352 *51:6 *298:122 5.76121e-05
353 *58:16 *298:645 0.000120402
354 *58:16 *298:667 1.99099e-05
355 *63:10 *980:C 2.27416e-05
356 *64:10 *298:667 0
357 *68:10 *980:C 0.000218246
358 *68:10 *298:701 0.000104611
359 *70:8 *298:102 0.00019764
360 *70:8 *298:113 4.38128e-05
361 *71:6 *298:102 0.000142856
362 *77:12 *298:72 3.15318e-05
363 *77:12 *298:87 1.32552e-05
364 *80:6 *298:72 5.23142e-05
365 *82:12 *298:667 0
366 *91:8 *298:632 2.27416e-05
367 *91:8 *298:641 3.48705e-05
368 *98:6 *1015:C 5.52302e-05
369 *110:12 *1029:C 2.94103e-05
370 *110:12 *298:365 5.03772e-05
371 *110:12 *298:376 5.33978e-05
372 *119:10 *1037:A2 3.34687e-05
373 *119:10 *298:354 5.52238e-05
374 *124:10 *298:326 0
375 *124:10 *298:547 0
376 *131:12 *298:154 0
377 *133:8 *1051:A2 2.14757e-05
378 *140:12 *1058:A2 0
379 *154:12 *1071:C 1.56e-05
380 *155:12 *298:789 5.71472e-05
381 *169:6 *298:37 9.90367e-05
382 *171:10 *1086:A2 2.41972e-05
383 *171:10 *298:54 4.51972e-05
384 *187:12 *298:229 0
385 *187:12 *298:244 0.000100735
386 *194:12 *298:265 0
387 *194:12 *298:269 0
388 *197:6 *1114:A2 8.25843e-06
389 *201:10 *1128:A2 9.22948e-05
390 *201:10 *298:269 0
391 *213:12 *1127:C 3.17148e-05
392 *213:12 *298:294 7.60306e-05
393 *217:10 *298:294 1.02504e-05
394 *223:10 *1142:A2 3.57315e-05
395 *230:12 *1148:C 7.83659e-05
396 *230:12 *298:429 0.000141277
397 *231:12 *298:429 0
398 *231:12 *298:439 5.03772e-05
399 *249:16 *1162:C 0.000274288
400 *251:6 *1170:A2 5.71472e-05
401 *254:10 *298:496 0
402 *265:12 *1183:C 0
403 *266:12 *1183:C 0.000152594
404 *271:12 *1134:C 5.52238e-05
405 *272:12 *298:87 9.71197e-05
406 *272:12 *298:102 0.000230482
407 *273:12 *298:102 0.000242681
408 *274:12 *1092:C 0.000142082
409 *274:12 *1093:A2 0
410 *274:12 *298:10 0.000202842
411 *274:14 *1099:C 0
412 *274:14 *1127:C 2.62888e-05
413 *274:14 *298:250 0
414 *274:14 *298:275 0
415 *276:16 *974:A2 2.45562e-05
416 *276:16 *298:667 0
417 *278:14 *1177:A2 9.60875e-05
418 *279:10 *1148:C 0
419 *279:10 *1162:C 0
420 *279:10 *298:403 0
421 *279:10 *298:429 0
422 *279:10 *298:492 0
423 *279:10 *298:496 0
424 *279:16 *1170:A2 5.62995e-05
425 *280:12 *1142:A2 5.64115e-05
426 *280:12 *298:443 0.00029324
427 *281:10 *298:429 0
428 *282:14 *298:802 0
429 *283:10 *1142:A2 0.000108111
430 *283:10 *298:443 0.000387891
431 *284:10 *298:148 7.38748e-05
432 *284:10 *298:154 0.000554136
433 *285:14 *1121:A2 3.98559e-05
434 *285:14 *298:148 0.000177867
435 *285:14 *298:154 0.000434301
436 *286:12 *1114:A2 5.71472e-05
437 *288:10 *298:135 2.42662e-05
438 *288:10 *298:144 0.000352785
439 *289:18 *1093:A2 2.09495e-05
440 *289:18 *1099:C 0.0003335
441 *289:18 *298:229 0.000202297
442 *292:12 *1086:A2 5.33614e-05
443 *292:12 *298:54 0.000172679
444 *293:18 *1050:C 5.71472e-05
445 *293:18 *298:572 8.41504e-05
446 *294:14 *298:54 6.87574e-05
447 *294:14 *298:63 5.71472e-05
448 *295:14 *298:194 0
449 *295:14 *298:196 0
450 *297:8 *1162:C 0
451 *297:10 *1162:C 0
452 *297:97 *1148:C 1.41029e-05
453 *297:274 *298:54 0.000261178
454 *297:286 *298:37 0
455 *297:296 *298:229 0
456 *297:308 *298:229 0
457 *297:400 *298:384 0.000103004
*RES
1 *1217:X *298:10 16.8893 
2 *298:10 *298:14 5.85714 
3 *298:14 *1093:A2 25.4071 
4 *298:14 *298:27 6.69643 
5 *298:27 *298:37 19.7679 
6 *298:37 *1086:A2 15.0679 
7 *298:37 *298:54 13.4464 
8 *298:54 *1079:A2 9.3 
9 *298:54 *298:63 4.25 
10 *298:63 *1078:C 9.3 
11 *298:63 *298:72 13.2857 
12 *298:72 *995:A2 9.93393 
13 *298:72 *298:87 11.5 
14 *298:87 *994:C 9.3 
15 *298:87 *298:102 10.5714 
16 *298:102 *988:A2 9.72857 
17 *298:102 *298:113 2.5 
18 *298:113 *987:C 9.3 
19 *298:113 *298:122 11.2321 
20 *298:122 *965:A2 10.9786 
21 *298:122 *298:135 3.01786 
22 *298:135 *964:C 9.3 
23 *298:135 *298:144 6.71429 
24 *298:144 *298:148 9.48214 
25 *298:148 *298:154 18.3214 
26 *298:154 *1121:A2 13.9964 
27 *298:154 *1120:C 9.3 
28 *298:148 *1043:C 13.8 
29 *298:144 *1044:A2 9.3 
30 *298:27 *298:186 0.946429 
31 *298:186 *298:194 12.5714 
32 *298:194 *298:196 7.41071 
33 *298:196 *298:204 13.9821 
34 *298:204 *1099:C 24.1571 
35 *298:204 *298:221 0.732143 
36 *298:221 *298:229 13.8036 
37 *298:229 *1107:A2 12.7286 
38 *298:229 *298:244 10.7321 
39 *298:244 *298:250 6.98214 
40 *298:250 *1114:A2 12.3179 
41 *298:250 *298:265 9.32143 
42 *298:265 *298:269 9.78571 
43 *298:269 *298:275 7.97321 
44 *298:275 *1127:C 18.5411 
45 *298:275 *298:294 13.5804 
46 *298:294 *1134:C 11.4964 
47 *298:294 *298:309 8.94643 
48 *298:309 *1135:A2 14.5321 
49 *298:309 *298:324 23.0893 
50 *298:324 *298:326 3.61607 
51 *298:326 *1037:A2 20.5232 
52 *298:326 *298:345 5.3125 
53 *298:345 *1036:C 9.3 
54 *298:345 *298:354 6.71429 
55 *298:354 *1030:A2 9.3 
56 *298:354 *298:365 10.2857 
57 *298:365 *1029:C 16.3536 
58 *298:365 *298:376 2.85714 
59 *298:376 *298:384 23.25 
60 *298:384 *298:390 10.6429 
61 *298:390 *1176:C 9.3 
62 *298:390 *298:399 7.53571 
63 *298:399 *298:403 9.48214 
64 *298:403 *298:405 4.5 
65 *298:405 *1177:A2 15.5857 
66 *298:405 *1155:C 9.83571 
67 *298:403 *298:429 10.0536 
68 *298:429 *298:439 11.1429 
69 *298:439 *298:443 11.3036 
70 *298:443 *1141:C 13.8 
71 *298:443 *1142:A2 30.7286 
72 *298:439 *1149:A2 9.3 
73 *298:429 *1148:C 15.1393 
74 *298:399 *1156:A2 9.3 
75 *298:384 *298:492 9.42857 
76 *298:492 *298:496 6.75 
77 *298:496 *1170:A2 11.925 
78 *298:496 *1169:C 9.3 
79 *298:492 *298:516 10.375 
80 *298:516 *1162:C 26.175 
81 *298:516 *1163:A2 9.3 
82 *298:376 *1023:A2 17.2107 
83 *298:324 *298:547 6.5 
84 *298:547 *1051:A2 14.7464 
85 *298:547 *298:572 9.875 
86 *298:572 *1050:C 10.675 
87 *298:572 *298:583 6.28571 
88 *298:583 *298:587 9.48214 
89 *298:587 *1016:A2 13.8 
90 *298:587 *298:600 5.33929 
91 *298:600 *1015:C 15.5679 
92 *298:600 *298:615 10.7679 
93 *298:615 *1009:A2 21.925 
94 *298:615 *298:632 5.46429 
95 *298:632 *1008:C 9.72857 
96 *298:632 *298:641 4.23214 
97 *298:641 *298:645 16.4643 
98 *298:645 *298:647 4.5 
99 *298:647 *973:C 9.3 
100 *298:647 *974:A2 12.2286 
101 *298:645 *298:667 14.3393 
102 *298:667 *298:669 4.64286 
103 *298:669 *1001:C 9.3 
104 *298:669 *1002:A2 24.4875 
105 *298:667 *298:701 3.01786 
106 *298:701 *981:A2 9.3 
107 *298:701 *980:C 13.9786 
108 *298:641 *298:719 5.05357 
109 *298:719 *1184:A2 9.72857 
110 *298:719 *1183:C 25.7643 
111 *298:583 *1022:C 9.3 
112 *298:269 *1128:A2 21.7107 
113 *298:265 *1113:C 13.8 
114 *298:244 *1106:C 13.8 
115 *298:221 *1100:A2 9.3 
116 *298:196 *298:780 6.26786 
117 *298:780 *1072:A2 9.3 
118 *298:780 *298:789 6.30357 
119 *298:789 *1065:A2 9.76875 
120 *298:789 *298:802 12.5179 
121 *298:802 *1058:A2 16.9964 
122 *298:802 *1057:C 14.3357 
123 *298:789 *1064:C 27.3357 
124 *298:194 *1071:C 17.6393 
125 *298:186 *1085:C 9.3 
126 *298:10 *1092:C 15.7464 
*END

*D_NET *299 0.00219453
*CONN
*I *1224:A I *D sky130_fd_sc_hd__buf_1
*I *1140:Q O *D sky130_fd_sc_hd__dfrtp_1
*CAP
1 *1224:A 0.000774021
2 *1140:Q 0.000774021
3 *1137:A *1224:A 0.000128146
4 *1137:B *1224:A 0.000151333
5 *1138:A2 *1224:A 0.000227526
6 *40:39 *1224:A 0.000139482
*RES
1 *1140:Q *1224:A 41.1357 
*END

*D_NET *300 0.000419298
*CONN
*I *967:A I *D sky130_fd_sc_hd__xnor2_1
*I *968:LO O *D sky130_fd_sc_hd__conb_1
*CAP
1 *967:A 0.000127743
2 *968:LO 0.000127743
3 *47:31 *967:A 0
4 *279:10 *967:A 0.00015304
5 *297:673 *967:A 1.07719e-05
6 *297:697 *967:A 0
*RES
1 *968:LO *967:A 30.0821 
*END

*D_NET *301 0.000740182
*CONN
*I *969:A1 I *D sky130_fd_sc_hd__a21bo_1
*I *970:LO O *D sky130_fd_sc_hd__conb_1
*CAP
1 *969:A1 0.000252555
2 *970:LO 0.000252555
3 *971:CLK *969:A1 0
4 *971:D *969:A1 4.57445e-05
5 *1197:A *969:A1 2.8266e-06
6 *1198:A *969:A1 2.8266e-06
7 *47:40 *969:A1 0
8 *279:10 *969:A1 0.000183674
*RES
1 *970:LO *969:A1 33.1179 
*END

*D_NET *302 0.00946055
*CONN
*I *1036:B I *D sky130_fd_sc_hd__nand3_1
*I *1037:A1 I *D sky130_fd_sc_hd__a21o_1
*I *1218:X O *D sky130_fd_sc_hd__buf_1
*CAP
1 *1036:B 0
2 *1037:A1 0.00022753
3 *1218:X 0.00146111
4 *302:18 0.00154699
5 *302:10 0.00278057
6 *302:10 *303:8 0
7 *302:18 *303:8 0
8 *302:18 *303:14 0
9 *949:A *302:18 0
10 *950:A *302:18 0
11 *999:CLK *302:10 0.000301526
12 *1013:CLK *302:10 0
13 *1020:RESET_B *302:18 2.47093e-05
14 *1034:CLK *302:18 0
15 *1034:D *1037:A1 0
16 *1036:A *1037:A1 0.00010326
17 *1037:A2 *1037:A1 0.000357516
18 *1037:B1 *1037:A1 0.000292572
19 *1038:A *1037:A1 6.8646e-06
20 *1039:A *302:18 0
21 *1039:B *302:18 0.00018077
22 *1063:D *302:10 0
23 *1063:D *302:18 0
24 *1064:C *302:10 0.000131481
25 *1077:D *302:10 5.33882e-05
26 *43:12 *302:10 8.06331e-05
27 *43:23 *302:10 0.000103993
28 *43:39 *302:10 0.000105347
29 *43:50 *302:10 0.000212597
30 *43:79 *302:10 0
31 *119:10 *302:18 2.14757e-05
32 *138:12 *302:18 0.000379863
33 *293:12 *302:10 0
34 *293:18 *302:10 0
35 *293:18 *302:18 0.000732331
36 *298:354 *302:18 0.000356035
37 *298:547 *302:18 0
*RES
1 *1218:X *302:10 45.5321 
2 *302:10 *302:18 36.3036 
3 *302:18 *1037:A1 24.5321 
4 *302:18 *1036:B 9.3 
*END

*D_NET *303 0.00824487
*CONN
*I *1029:B I *D sky130_fd_sc_hd__nand3_1
*I *1030:A1 I *D sky130_fd_sc_hd__a21o_1
*I *1219:X O *D sky130_fd_sc_hd__buf_1
*CAP
1 *1029:B 0.000299231
2 *1030:A1 2.11898e-05
3 *1219:X 0
4 *303:14 0.000662497
5 *303:8 0.00298264
6 *303:6 0.00264056
7 *303:8 *1023:A1 0
8 *303:8 *305:10 0
9 *949:A *303:8 0
10 *950:A *303:8 0
11 *950:A *303:14 2.39129e-05
12 *999:CLK *303:8 0
13 *999:D *303:8 4.57445e-05
14 *1013:RESET_B *303:8 0.000128154
15 *1020:RESET_B *303:8 0
16 *1023:A2 *303:14 0
17 *1026:A1 *303:8 0
18 *1026:A1 *303:14 0
19 *1027:D *303:8 0
20 *1029:A *1029:B 2.72053e-05
21 *1029:C *303:14 0
22 *1030:B1 *303:14 9.25014e-06
23 *1032:B *1029:B 0.000108276
24 *1032:B *303:14 0
25 *1033:A1 *1029:B 0.000101545
26 *1035:RESET_B *1029:B 1.39726e-05
27 *1063:D *303:8 5.08577e-05
28 *1070:D *303:8 0.000317609
29 *43:39 *303:8 0
30 *43:50 *303:8 0
31 *103:10 *303:8 0
32 *138:12 *303:8 0
33 *297:171 *303:8 0.000139787
34 *297:173 *303:8 3.90513e-05
35 *297:175 *303:8 6.42242e-05
36 *297:181 *303:8 0.000269706
37 *298:354 *1029:B 1.97695e-05
38 *298:365 *1029:B 6.3056e-05
39 *298:365 *1030:A1 2.89016e-05
40 *298:376 *303:14 0
41 *298:587 *303:8 0
42 *298:600 *303:8 0.000103728
43 *298:615 *303:8 8.40012e-05
44 *302:10 *303:8 0
45 *302:18 *303:8 0
46 *302:18 *303:14 0
*RES
1 *1219:X *303:6 13.8 
2 *303:6 *303:8 52.3482 
3 *303:8 *303:14 10.6161 
4 *303:14 *1030:A1 9.83571 
5 *303:14 *1029:B 24.0321 
*END

*D_NET *304 0.00784943
*CONN
*I *1022:B I *D sky130_fd_sc_hd__nand3_1
*I *1023:A1 I *D sky130_fd_sc_hd__a21o_1
*I *1220:X O *D sky130_fd_sc_hd__buf_1
*CAP
1 *1022:B 7.58936e-05
2 *1023:A1 0.000444127
3 *1220:X 7.34731e-05
4 *304:10 0.00267622
5 *304:8 0.00222967
6 *304:8 *305:8 2.72859e-05
7 *304:10 *1008:B 0
8 *304:10 *305:10 0.00106098
9 *304:10 *306:14 0
10 *997:B *304:10 0
11 *998:A1 *304:10 0.000153054
12 *1000:D *304:10 4.57538e-05
13 *1009:A2 *304:10 5.57914e-05
14 *1016:B1 *304:10 0.000150611
15 *1017:B *304:10 0.000103256
16 *1018:B *304:10 0
17 *1019:B1_N *304:10 7.83587e-05
18 *1022:A *1022:B 4.22908e-05
19 *1023:A2 *1023:A1 4.88546e-05
20 *1023:B1 *1023:A1 1.85096e-05
21 *1024:A *1023:A1 2.59355e-05
22 *1026:A1 *1023:A1 0.000128154
23 *1026:A2 *1023:A1 5.52302e-05
24 *77:12 *304:10 0
25 *87:12 *304:10 0
26 *96:12 *304:10 0
27 *99:10 *304:10 2.72545e-05
28 *103:10 *1022:B 1.24368e-05
29 *103:10 *1023:A1 0.000151333
30 *105:12 *1023:A1 0.000164969
31 *105:12 *304:10 0
32 *297:474 *304:10 0
33 *298:587 *304:10 0
34 *303:8 *1023:A1 0
*RES
1 *1220:X *304:8 14.7464 
2 *304:8 *304:10 48.0893 
3 *304:10 *1023:A1 31.4786 
4 *304:10 *1022:B 15.175 
*END

*D_NET *305 0.0059378
*CONN
*I *1015:B I *D sky130_fd_sc_hd__nand3_1
*I *1016:A1 I *D sky130_fd_sc_hd__a21o_1
*I *1221:X O *D sky130_fd_sc_hd__buf_1
*CAP
1 *1015:B 0
2 *1016:A1 0.000105839
3 *1221:X 0.000138663
4 *305:10 0.00178743
5 *305:8 0.00182026
6 *998:A1 *305:10 8.39e-05
7 *1015:A *1016:A1 0.000247786
8 *1016:B1 *1016:A1 4.23086e-05
9 *1017:B *1016:A1 0.000191877
10 *1017:B *305:10 1.02504e-05
11 *1220:A *305:10 6.0038e-05
12 *1221:A *305:10 0
13 *99:10 *1016:A1 0.000127439
14 *298:587 *1016:A1 1.02504e-05
15 *298:600 *1016:A1 0.000119507
16 *298:615 *305:10 0.000103993
17 *303:8 *305:10 0
18 *304:8 *305:8 2.72859e-05
19 *304:10 *305:10 0.00106098
*RES
1 *1221:X *305:8 15.9786 
2 *305:8 *305:10 39.5893 
3 *305:10 *1016:A1 18.7821 
4 *305:10 *1015:B 13.8 
*END

*D_NET *306 0.00540098
*CONN
*I *1009:A1 I *D sky130_fd_sc_hd__a21o_1
*I *1008:B I *D sky130_fd_sc_hd__nand3_1
*I *1222:X O *D sky130_fd_sc_hd__buf_1
*CAP
1 *1009:A1 0
2 *1008:B 0.000260789
3 *1222:X 0.00187585
4 *306:14 0.00213664
5 *306:14 *1002:A1 0
6 *306:14 *307:10 0
7 *994:A *306:14 4.89311e-05
8 *995:A1 *306:14 1.59689e-05
9 *997:B *306:14 5.26277e-05
10 *1000:D *306:14 0
11 *1001:A *306:14 0
12 *1002:A2 *306:14 4.08207e-05
13 *1003:B *306:14 0.000122951
14 *1007:D *306:14 0
15 *1008:A *1008:B 0.000312085
16 *1008:A *306:14 5.80706e-06
17 *1009:A2 *1008:B 3.56976e-05
18 *1013:D *306:14 0
19 *39:10 *306:14 0
20 *39:40 *306:14 0
21 *77:12 *306:14 7.79781e-06
22 *78:10 *306:14 0.00015234
23 *85:10 *306:14 5.84171e-05
24 *87:12 *306:14 0.000128154
25 *89:10 *306:14 0
26 *94:10 *306:14 7.57773e-05
27 *298:632 *1008:B 7.03295e-05
28 *304:10 *1008:B 0
29 *304:10 *306:14 0
*RES
1 *1222:X *306:14 49.3357 
2 *306:14 *1008:B 19.1571 
3 *306:14 *1009:A1 13.8 
*END

*D_NET *307 0.00230935
*CONN
*I *1001:B I *D sky130_fd_sc_hd__nand3_1
*I *1002:A1 I *D sky130_fd_sc_hd__a21o_1
*I *1223:X O *D sky130_fd_sc_hd__clkbuf_1
*CAP
1 *1001:B 1.22387e-05
2 *1002:A1 0.000139685
3 *1223:X 0.000866953
4 *307:10 0.00101888
5 *992:CLK *307:10 0
6 *994:A *307:10 6.95556e-05
7 *995:A1 *307:10 2.47093e-05
8 *1001:A *1001:B 9.58941e-06
9 *1001:A *307:10 5.58941e-05
10 *1002:A2 *1001:B 1.87452e-05
11 *1002:A2 *1002:A1 5.25882e-05
12 *1002:A2 *307:10 0
13 *84:8 *1002:A1 9.25014e-06
14 *85:10 *1002:A1 2.8266e-06
15 *298:87 *307:10 2.84398e-05
16 *306:14 *1002:A1 0
17 *306:14 *307:10 0
*RES
1 *1223:X *307:10 28.5768 
2 *307:10 *1002:A1 15.8625 
3 *307:10 *1001:B 14.1304 
*END
