*SPEF "ieee 1481-1999"
*DESIGN "spm"
*DATE "04:23:40 Thursday March 27, 2025"
*VENDOR "The OpenROAD Project"
*PROGRAM "OpenROAD"
*VERSION "edf00dff99f6c40d67a30c0e22a8191c5d2ed9d6"
*DESIGN_FLOW "NAME_SCOPE LOCAL" "PIN_CAP NONE"
*DIVIDER /
*DELIMITER :
*BUS_DELIMITER []
*T_UNIT 1 NS
*C_UNIT 1 PF
*R_UNIT 1 OHM
*L_UNIT 1 HENRY

*NAME_MAP
*1 a[0]
*2 a[10]
*3 a[11]
*4 a[12]
*5 a[13]
*6 a[14]
*7 a[15]
*8 a[16]
*9 a[17]
*10 a[18]
*11 a[19]
*12 a[1]
*13 a[20]
*14 a[21]
*15 a[22]
*16 a[23]
*17 a[24]
*18 a[25]
*19 a[26]
*20 a[27]
*21 a[28]
*22 a[29]
*23 a[2]
*24 a[30]
*25 a[31]
*26 a[3]
*27 a[4]
*28 a[5]
*29 a[6]
*30 a[7]
*31 a[8]
*32 a[9]
*33 clk
*34 rst
*37 x
*38 y
*39 clknet_0_clk
*40 clknet_3_0__leaf_clk
*41 clknet_3_1__leaf_clk
*42 clknet_3_2__leaf_clk
*43 clknet_3_3__leaf_clk
*44 clknet_3_4__leaf_clk
*45 clknet_3_5__leaf_clk
*46 clknet_3_6__leaf_clk
*47 clknet_3_7__leaf_clk
*48 dsa\[0\]\._0_
*49 dsa\[0\]\._1_
*50 dsa\[0\]\._2_
*51 dsa\[0\]\.last_carry
*52 dsa\[0\]\.last_carry_next
*53 dsa\[0\]\.y_out
*54 dsa\[0\]\.y_out_next
*55 dsa\[10\]\._0_
*56 dsa\[10\]\._1_
*57 dsa\[10\]\._2_
*58 dsa\[10\]\.last_carry
*59 dsa\[10\]\.last_carry_next
*60 dsa\[10\]\.y_in
*61 dsa\[10\]\.y_out
*62 dsa\[10\]\.y_out_next
*63 dsa\[11\]\._0_
*64 dsa\[11\]\._1_
*65 dsa\[11\]\._2_
*66 dsa\[11\]\.last_carry
*67 dsa\[11\]\.last_carry_next
*68 dsa\[11\]\.y_out
*69 dsa\[11\]\.y_out_next
*70 dsa\[12\]\._0_
*71 dsa\[12\]\._1_
*72 dsa\[12\]\._2_
*73 dsa\[12\]\.last_carry
*74 dsa\[12\]\.last_carry_next
*75 dsa\[12\]\.y_out
*76 dsa\[12\]\.y_out_next
*77 dsa\[13\]\._0_
*78 dsa\[13\]\._1_
*79 dsa\[13\]\._2_
*80 dsa\[13\]\.last_carry
*81 dsa\[13\]\.last_carry_next
*82 dsa\[13\]\.y_out
*83 dsa\[13\]\.y_out_next
*84 dsa\[14\]\._0_
*85 dsa\[14\]\._1_
*86 dsa\[14\]\._2_
*87 dsa\[14\]\.last_carry
*88 dsa\[14\]\.last_carry_next
*89 dsa\[14\]\.y_out
*90 dsa\[14\]\.y_out_next
*91 dsa\[15\]\._0_
*92 dsa\[15\]\._1_
*93 dsa\[15\]\._2_
*94 dsa\[15\]\.last_carry
*95 dsa\[15\]\.last_carry_next
*96 dsa\[15\]\.y_out
*97 dsa\[15\]\.y_out_next
*98 dsa\[16\]\._0_
*99 dsa\[16\]\._1_
*100 dsa\[16\]\._2_
*101 dsa\[16\]\.last_carry
*102 dsa\[16\]\.last_carry_next
*103 dsa\[16\]\.y_out
*104 dsa\[16\]\.y_out_next
*105 dsa\[17\]\._0_
*106 dsa\[17\]\._1_
*107 dsa\[17\]\._2_
*108 dsa\[17\]\.last_carry
*109 dsa\[17\]\.last_carry_next
*110 dsa\[17\]\.y_out
*111 dsa\[17\]\.y_out_next
*112 dsa\[18\]\._0_
*113 dsa\[18\]\._1_
*114 dsa\[18\]\._2_
*115 dsa\[18\]\.last_carry
*116 dsa\[18\]\.last_carry_next
*117 dsa\[18\]\.y_out
*118 dsa\[18\]\.y_out_next
*119 dsa\[19\]\._0_
*120 dsa\[19\]\._1_
*121 dsa\[19\]\._2_
*122 dsa\[19\]\.last_carry
*123 dsa\[19\]\.last_carry_next
*124 dsa\[19\]\.y_out
*125 dsa\[19\]\.y_out_next
*126 dsa\[1\]\._0_
*127 dsa\[1\]\._1_
*128 dsa\[1\]\._2_
*129 dsa\[1\]\.last_carry
*130 dsa\[1\]\.last_carry_next
*131 dsa\[1\]\.y_out
*132 dsa\[1\]\.y_out_next
*133 dsa\[20\]\._0_
*134 dsa\[20\]\._1_
*135 dsa\[20\]\._2_
*136 dsa\[20\]\.last_carry
*137 dsa\[20\]\.last_carry_next
*138 dsa\[20\]\.y_out
*139 dsa\[20\]\.y_out_next
*140 dsa\[21\]\._0_
*141 dsa\[21\]\._1_
*142 dsa\[21\]\._2_
*143 dsa\[21\]\.last_carry
*144 dsa\[21\]\.last_carry_next
*145 dsa\[21\]\.y_out
*146 dsa\[21\]\.y_out_next
*147 dsa\[22\]\._0_
*148 dsa\[22\]\._1_
*149 dsa\[22\]\._2_
*150 dsa\[22\]\.last_carry
*151 dsa\[22\]\.last_carry_next
*152 dsa\[22\]\.y_out
*153 dsa\[22\]\.y_out_next
*154 dsa\[23\]\._0_
*155 dsa\[23\]\._1_
*156 dsa\[23\]\._2_
*157 dsa\[23\]\.last_carry
*158 dsa\[23\]\.last_carry_next
*159 dsa\[23\]\.y_out
*160 dsa\[23\]\.y_out_next
*161 dsa\[24\]\._0_
*162 dsa\[24\]\._1_
*163 dsa\[24\]\._2_
*164 dsa\[24\]\.last_carry
*165 dsa\[24\]\.last_carry_next
*166 dsa\[24\]\.y_out
*167 dsa\[24\]\.y_out_next
*168 dsa\[25\]\._0_
*169 dsa\[25\]\._1_
*170 dsa\[25\]\._2_
*171 dsa\[25\]\.last_carry
*172 dsa\[25\]\.last_carry_next
*173 dsa\[25\]\.y_out
*174 dsa\[25\]\.y_out_next
*175 dsa\[26\]\._0_
*176 dsa\[26\]\._1_
*177 dsa\[26\]\._2_
*178 dsa\[26\]\.last_carry
*179 dsa\[26\]\.last_carry_next
*180 dsa\[26\]\.y_out
*181 dsa\[26\]\.y_out_next
*182 dsa\[27\]\._0_
*183 dsa\[27\]\._1_
*184 dsa\[27\]\._2_
*185 dsa\[27\]\.last_carry
*186 dsa\[27\]\.last_carry_next
*187 dsa\[27\]\.y_out
*188 dsa\[27\]\.y_out_next
*189 dsa\[28\]\._0_
*190 dsa\[28\]\._1_
*191 dsa\[28\]\._2_
*192 dsa\[28\]\.last_carry
*193 dsa\[28\]\.last_carry_next
*194 dsa\[28\]\.y_out
*195 dsa\[28\]\.y_out_next
*196 dsa\[29\]\._0_
*197 dsa\[29\]\._1_
*198 dsa\[29\]\._2_
*199 dsa\[29\]\.last_carry
*200 dsa\[29\]\.last_carry_next
*201 dsa\[29\]\.y_out
*202 dsa\[29\]\.y_out_next
*203 dsa\[2\]\._0_
*204 dsa\[2\]\._1_
*205 dsa\[2\]\._2_
*206 dsa\[2\]\.last_carry
*207 dsa\[2\]\.last_carry_next
*208 dsa\[2\]\.y_out
*209 dsa\[2\]\.y_out_next
*210 dsa\[30\]\._0_
*211 dsa\[30\]\._1_
*212 dsa\[30\]\._2_
*213 dsa\[30\]\.last_carry
*214 dsa\[30\]\.last_carry_next
*215 dsa\[30\]\.y_out
*216 dsa\[30\]\.y_out_next
*217 dsa\[31\]\._0_
*218 dsa\[31\]\._1_
*219 dsa\[31\]\._2_
*220 dsa\[31\]\.last_carry
*221 dsa\[31\]\.last_carry_next
*222 dsa\[31\]\.y_out_next
*223 dsa\[3\]\._0_
*224 dsa\[3\]\._1_
*225 dsa\[3\]\._2_
*226 dsa\[3\]\.last_carry
*227 dsa\[3\]\.last_carry_next
*228 dsa\[3\]\.y_out
*229 dsa\[3\]\.y_out_next
*230 dsa\[4\]\._0_
*231 dsa\[4\]\._1_
*232 dsa\[4\]\._2_
*233 dsa\[4\]\.last_carry
*234 dsa\[4\]\.last_carry_next
*235 dsa\[4\]\.y_out
*236 dsa\[4\]\.y_out_next
*237 dsa\[5\]\._0_
*238 dsa\[5\]\._1_
*239 dsa\[5\]\._2_
*240 dsa\[5\]\.last_carry
*241 dsa\[5\]\.last_carry_next
*242 dsa\[5\]\.y_out
*243 dsa\[5\]\.y_out_next
*244 dsa\[6\]\._0_
*245 dsa\[6\]\._1_
*246 dsa\[6\]\._2_
*247 dsa\[6\]\.last_carry
*248 dsa\[6\]\.last_carry_next
*249 dsa\[6\]\.y_out
*250 dsa\[6\]\.y_out_next
*251 dsa\[7\]\._0_
*252 dsa\[7\]\._1_
*253 dsa\[7\]\._2_
*254 dsa\[7\]\.last_carry
*255 dsa\[7\]\.last_carry_next
*256 dsa\[7\]\.y_out
*257 dsa\[7\]\.y_out_next
*258 dsa\[8\]\._0_
*259 dsa\[8\]\._1_
*260 dsa\[8\]\._2_
*261 dsa\[8\]\.last_carry
*262 dsa\[8\]\.last_carry_next
*263 dsa\[8\]\.y_out
*264 dsa\[8\]\.y_out_next
*265 dsa\[9\]\._0_
*266 dsa\[9\]\._1_
*267 dsa\[9\]\._2_
*268 dsa\[9\]\.last_carry
*269 dsa\[9\]\.last_carry_next
*270 dsa\[9\]\.y_out_next
*271 net1
*272 net10
*273 net11
*274 net12
*275 net13
*276 net14
*277 net15
*278 net16
*279 net17
*280 net18
*281 net19
*282 net2
*283 net20
*284 net21
*285 net22
*286 net23
*287 net24
*288 net25
*289 net26
*290 net27
*291 net28
*292 net29
*293 net3
*294 net30
*295 net31
*296 net32
*297 net33
*298 net34
*299 net35
*300 net36
*301 net37
*302 net4
*303 net5
*304 net6
*305 net7
*306 net8
*307 net9
*308 FILLER_0_109
*309 FILLER_0_113
*310 FILLER_0_125
*311 FILLER_0_137
*312 FILLER_0_141
*313 FILLER_0_145
*314 FILLER_0_15
*315 FILLER_0_162
*316 FILLER_0_169
*317 FILLER_0_181
*318 FILLER_0_27
*319 FILLER_0_29
*320 FILLER_0_3
*321 FILLER_0_41
*322 FILLER_0_53
*323 FILLER_0_57
*324 FILLER_0_69
*325 FILLER_0_81
*326 FILLER_0_85
*327 FILLER_0_97
*328 FILLER_10_137
*329 FILLER_10_141
*330 FILLER_10_149
*331 FILLER_10_159
*332 FILLER_10_26
*333 FILLER_10_36
*334 FILLER_10_44
*335 FILLER_10_57
*336 FILLER_10_69
*337 FILLER_10_81
*338 FILLER_10_89
*339 FILLER_11_105
*340 FILLER_11_11
*341 FILLER_11_111
*342 FILLER_11_113
*343 FILLER_11_131
*344 FILLER_11_167
*345 FILLER_11_176
*346 FILLER_11_182
*347 FILLER_11_3
*348 FILLER_11_31
*349 FILLER_11_39
*350 FILLER_11_46
*351 FILLER_11_54
*352 FILLER_11_57
*353 FILLER_11_69
*354 FILLER_11_81
*355 FILLER_11_93
*356 FILLER_12_127
*357 FILLER_12_139
*358 FILLER_12_141
*359 FILLER_12_15
*360 FILLER_12_160
*361 FILLER_12_27
*362 FILLER_12_29
*363 FILLER_12_3
*364 FILLER_12_33
*365 FILLER_12_74
*366 FILLER_12_82
*367 FILLER_12_91
*368 FILLER_12_99
*369 FILLER_13_100
*370 FILLER_13_113
*371 FILLER_13_15
*372 FILLER_13_167
*373 FILLER_13_169
*374 FILLER_13_181
*375 FILLER_13_26
*376 FILLER_13_3
*377 FILLER_13_54
*378 FILLER_13_57
*379 FILLER_14_104
*380 FILLER_14_116
*381 FILLER_14_128
*382 FILLER_14_141
*383 FILLER_14_153
*384 FILLER_14_158
*385 FILLER_14_170
*386 FILLER_14_182
*387 FILLER_14_27
*388 FILLER_14_32
*389 FILLER_14_44
*390 FILLER_14_56
*391 FILLER_14_68
*392 FILLER_14_80
*393 FILLER_14_92
*394 FILLER_14_96
*395 FILLER_15_101
*396 FILLER_15_109
*397 FILLER_15_113
*398 FILLER_15_125
*399 FILLER_15_133
*400 FILLER_15_145
*401 FILLER_15_15
*402 FILLER_15_157
*403 FILLER_15_165
*404 FILLER_15_169
*405 FILLER_15_181
*406 FILLER_15_23
*407 FILLER_15_3
*408 FILLER_15_31
*409 FILLER_15_52
*410 FILLER_15_57
*411 FILLER_15_69
*412 FILLER_15_81
*413 FILLER_15_93
*414 FILLER_16_108
*415 FILLER_16_11
*416 FILLER_16_148
*417 FILLER_16_160
*418 FILLER_16_180
*419 FILLER_16_25
*420 FILLER_16_29
*421 FILLER_16_3
*422 FILLER_16_41
*423 FILLER_16_71
*424 FILLER_16_78
*425 FILLER_16_85
*426 FILLER_16_93
*427 FILLER_17_113
*428 FILLER_17_125
*429 FILLER_17_133
*430 FILLER_17_145
*431 FILLER_17_167
*432 FILLER_17_33
*433 FILLER_17_45
*434 FILLER_17_53
*435 FILLER_17_57
*436 FILLER_18_120
*437 FILLER_18_132
*438 FILLER_18_161
*439 FILLER_18_21
*440 FILLER_18_27
*441 FILLER_18_29
*442 FILLER_18_3
*443 FILLER_18_41
*444 FILLER_18_53
*445 FILLER_18_57
*446 FILLER_18_62
*447 FILLER_18_74
*448 FILLER_18_82
*449 FILLER_18_85
*450 FILLER_18_97
*451 FILLER_19_103
*452 FILLER_19_111
*453 FILLER_19_113
*454 FILLER_19_127
*455 FILLER_19_139
*456 FILLER_19_15
*457 FILLER_19_151
*458 FILLER_19_163
*459 FILLER_19_167
*460 FILLER_19_169
*461 FILLER_19_181
*462 FILLER_19_23
*463 FILLER_19_3
*464 FILLER_19_45
*465 FILLER_19_53
*466 FILLER_19_65
*467 FILLER_19_91
*468 FILLER_1_105
*469 FILLER_1_111
*470 FILLER_1_113
*471 FILLER_1_125
*472 FILLER_1_137
*473 FILLER_1_149
*474 FILLER_1_15
*475 FILLER_1_161
*476 FILLER_1_167
*477 FILLER_1_169
*478 FILLER_1_181
*479 FILLER_1_27
*480 FILLER_1_3
*481 FILLER_1_39
*482 FILLER_1_51
*483 FILLER_1_55
*484 FILLER_1_57
*485 FILLER_1_69
*486 FILLER_1_81
*487 FILLER_1_93
*488 FILLER_20_106
*489 FILLER_20_114
*490 FILLER_20_132
*491 FILLER_20_141
*492 FILLER_20_162
*493 FILLER_20_166
*494 FILLER_20_178
*495 FILLER_20_182
*496 FILLER_20_26
*497 FILLER_20_29
*498 FILLER_20_3
*499 FILLER_20_37
*500 FILLER_20_59
*501 FILLER_20_72
*502 FILLER_20_85
*503 FILLER_21_105
*504 FILLER_21_111
*505 FILLER_21_113
*506 FILLER_21_119
*507 FILLER_21_128
*508 FILLER_21_152
*509 FILLER_21_166
*510 FILLER_21_176
*511 FILLER_21_182
*512 FILLER_21_30
*513 FILLER_21_42
*514 FILLER_21_49
*515 FILLER_21_55
*516 FILLER_21_66
*517 FILLER_21_72
*518 FILLER_21_93
*519 FILLER_22_100
*520 FILLER_22_108
*521 FILLER_22_135
*522 FILLER_22_139
*523 FILLER_22_141
*524 FILLER_22_145
*525 FILLER_22_15
*526 FILLER_22_176
*527 FILLER_22_182
*528 FILLER_22_23
*529 FILLER_22_27
*530 FILLER_22_29
*531 FILLER_22_3
*532 FILLER_22_37
*533 FILLER_22_59
*534 FILLER_22_63
*535 FILLER_22_85
*536 FILLER_23_110
*537 FILLER_23_136
*538 FILLER_23_144
*539 FILLER_23_15
*540 FILLER_23_152
*541 FILLER_23_164
*542 FILLER_23_169
*543 FILLER_23_181
*544 FILLER_23_23
*545 FILLER_23_3
*546 FILLER_24_105
*547 FILLER_24_117
*548 FILLER_24_138
*549 FILLER_24_161
*550 FILLER_24_23
*551 FILLER_24_27
*552 FILLER_24_29
*553 FILLER_24_41
*554 FILLER_24_48
*555 FILLER_24_54
*556 FILLER_24_75
*557 FILLER_24_83
*558 FILLER_24_85
*559 FILLER_24_93
*560 FILLER_25_105
*561 FILLER_25_111
*562 FILLER_25_113
*563 FILLER_25_125
*564 FILLER_25_137
*565 FILLER_25_14
*566 FILLER_25_145
*567 FILLER_25_176
*568 FILLER_25_182
*569 FILLER_25_3
*570 FILLER_25_36
*571 FILLER_25_48
*572 FILLER_25_57
*573 FILLER_25_69
*574 FILLER_25_81
*575 FILLER_25_93
*576 FILLER_26_109
*577 FILLER_26_117
*578 FILLER_26_121
*579 FILLER_26_133
*580 FILLER_26_139
*581 FILLER_26_141
*582 FILLER_26_150
*583 FILLER_26_162
*584 FILLER_26_170
*585 FILLER_26_174
*586 FILLER_26_182
*587 FILLER_26_19
*588 FILLER_26_27
*589 FILLER_26_29
*590 FILLER_26_35
*591 FILLER_26_43
*592 FILLER_26_55
*593 FILLER_26_85
*594 FILLER_27_104
*595 FILLER_27_140
*596 FILLER_27_149
*597 FILLER_27_15
*598 FILLER_27_161
*599 FILLER_27_167
*600 FILLER_27_181
*601 FILLER_27_27
*602 FILLER_27_3
*603 FILLER_27_35
*604 FILLER_27_45
*605 FILLER_27_53
*606 FILLER_27_68
*607 FILLER_27_80
*608 FILLER_27_84
*609 FILLER_27_92
*610 FILLER_28_102
*611 FILLER_28_123
*612 FILLER_28_135
*613 FILLER_28_139
*614 FILLER_28_152
*615 FILLER_28_16
*616 FILLER_28_180
*617 FILLER_28_24
*618 FILLER_28_29
*619 FILLER_28_3
*620 FILLER_28_46
*621 FILLER_28_67
*622 FILLER_28_7
*623 FILLER_28_79
*624 FILLER_28_83
*625 FILLER_28_96
*626 FILLER_29_105
*627 FILLER_29_111
*628 FILLER_29_131
*629 FILLER_29_163
*630 FILLER_29_167
*631 FILLER_29_169
*632 FILLER_29_178
*633 FILLER_29_43
*634 FILLER_29_55
*635 FILLER_29_57
*636 FILLER_29_70
*637 FILLER_29_74
*638 FILLER_2_109
*639 FILLER_2_121
*640 FILLER_2_133
*641 FILLER_2_139
*642 FILLER_2_141
*643 FILLER_2_15
*644 FILLER_2_153
*645 FILLER_2_165
*646 FILLER_2_177
*647 FILLER_2_27
*648 FILLER_2_29
*649 FILLER_2_3
*650 FILLER_2_41
*651 FILLER_2_53
*652 FILLER_2_65
*653 FILLER_2_77
*654 FILLER_2_83
*655 FILLER_2_85
*656 FILLER_2_97
*657 FILLER_30_10
*658 FILLER_30_100
*659 FILLER_30_106
*660 FILLER_30_113
*661 FILLER_30_118
*662 FILLER_30_124
*663 FILLER_30_130
*664 FILLER_30_136
*665 FILLER_30_144
*666 FILLER_30_154
*667 FILLER_30_160
*668 FILLER_30_166
*669 FILLER_30_172
*670 FILLER_30_178
*671 FILLER_30_24
*672 FILLER_30_29
*673 FILLER_30_34
*674 FILLER_30_40
*675 FILLER_30_46
*676 FILLER_30_52
*677 FILLER_30_6
*678 FILLER_30_60
*679 FILLER_30_64
*680 FILLER_30_70
*681 FILLER_30_76
*682 FILLER_30_82
*683 FILLER_30_88
*684 FILLER_30_94
*685 FILLER_3_105
*686 FILLER_3_111
*687 FILLER_3_113
*688 FILLER_3_125
*689 FILLER_3_137
*690 FILLER_3_149
*691 FILLER_3_15
*692 FILLER_3_161
*693 FILLER_3_167
*694 FILLER_3_169
*695 FILLER_3_181
*696 FILLER_3_3
*697 FILLER_3_39
*698 FILLER_3_51
*699 FILLER_3_55
*700 FILLER_3_57
*701 FILLER_3_69
*702 FILLER_3_81
*703 FILLER_3_93
*704 FILLER_4_105
*705 FILLER_4_111
*706 FILLER_4_132
*707 FILLER_4_141
*708 FILLER_4_15
*709 FILLER_4_159
*710 FILLER_4_27
*711 FILLER_4_29
*712 FILLER_4_3
*713 FILLER_4_41
*714 FILLER_4_53
*715 FILLER_4_57
*716 FILLER_4_67
*717 FILLER_4_79
*718 FILLER_4_93
*719 FILLER_5_113
*720 FILLER_5_119
*721 FILLER_5_128
*722 FILLER_5_166
*723 FILLER_5_169
*724 FILLER_5_181
*725 FILLER_5_22
*726 FILLER_5_3
*727 FILLER_5_34
*728 FILLER_5_65
*729 FILLER_5_91
*730 FILLER_6_10
*731 FILLER_6_105
*732 FILLER_6_117
*733 FILLER_6_131
*734 FILLER_6_139
*735 FILLER_6_141
*736 FILLER_6_149
*737 FILLER_6_161
*738 FILLER_6_22
*739 FILLER_6_29
*740 FILLER_6_51
*741 FILLER_6_6
*742 FILLER_6_64
*743 FILLER_6_76
*744 FILLER_6_85
*745 FILLER_6_93
*746 FILLER_7_113
*747 FILLER_7_119
*748 FILLER_7_128
*749 FILLER_7_140
*750 FILLER_7_152
*751 FILLER_7_164
*752 FILLER_7_169
*753 FILLER_7_181
*754 FILLER_7_49
*755 FILLER_7_55
*756 FILLER_7_57
*757 FILLER_7_69
*758 FILLER_7_81
*759 FILLER_7_89
*760 FILLER_8_103
*761 FILLER_8_135
*762 FILLER_8_139
*763 FILLER_8_141
*764 FILLER_8_149
*765 FILLER_8_15
*766 FILLER_8_164
*767 FILLER_8_176
*768 FILLER_8_182
*769 FILLER_8_20
*770 FILLER_8_29
*771 FILLER_8_3
*772 FILLER_8_37
*773 FILLER_8_78
*774 FILLER_8_85
*775 FILLER_9_109
*776 FILLER_9_113
*777 FILLER_9_15
*778 FILLER_9_165
*779 FILLER_9_169
*780 FILLER_9_181
*781 FILLER_9_27
*782 FILLER_9_3
*783 FILLER_9_39
*784 FILLER_9_51
*785 FILLER_9_55
*786 FILLER_9_57
*787 PHY_EDGE_ROW_0_Left_31
*788 PHY_EDGE_ROW_0_Right_0
*789 PHY_EDGE_ROW_10_Left_41
*790 PHY_EDGE_ROW_10_Right_10
*791 PHY_EDGE_ROW_11_Left_42
*792 PHY_EDGE_ROW_11_Right_11
*793 PHY_EDGE_ROW_12_Left_43
*794 PHY_EDGE_ROW_12_Right_12
*795 PHY_EDGE_ROW_13_Left_44
*796 PHY_EDGE_ROW_13_Right_13
*797 PHY_EDGE_ROW_14_Left_45
*798 PHY_EDGE_ROW_14_Right_14
*799 PHY_EDGE_ROW_15_Left_46
*800 PHY_EDGE_ROW_15_Right_15
*801 PHY_EDGE_ROW_16_Left_47
*802 PHY_EDGE_ROW_16_Right_16
*803 PHY_EDGE_ROW_17_Left_48
*804 PHY_EDGE_ROW_17_Right_17
*805 PHY_EDGE_ROW_18_Left_49
*806 PHY_EDGE_ROW_18_Right_18
*807 PHY_EDGE_ROW_19_Left_50
*808 PHY_EDGE_ROW_19_Right_19
*809 PHY_EDGE_ROW_1_Left_32
*810 PHY_EDGE_ROW_1_Right_1
*811 PHY_EDGE_ROW_20_Left_51
*812 PHY_EDGE_ROW_20_Right_20
*813 PHY_EDGE_ROW_21_Left_52
*814 PHY_EDGE_ROW_21_Right_21
*815 PHY_EDGE_ROW_22_Left_53
*816 PHY_EDGE_ROW_22_Right_22
*817 PHY_EDGE_ROW_23_Left_54
*818 PHY_EDGE_ROW_23_Right_23
*819 PHY_EDGE_ROW_24_Left_55
*820 PHY_EDGE_ROW_24_Right_24
*821 PHY_EDGE_ROW_25_Left_56
*822 PHY_EDGE_ROW_25_Right_25
*823 PHY_EDGE_ROW_26_Left_57
*824 PHY_EDGE_ROW_26_Right_26
*825 PHY_EDGE_ROW_27_Left_58
*826 PHY_EDGE_ROW_27_Right_27
*827 PHY_EDGE_ROW_28_Left_59
*828 PHY_EDGE_ROW_28_Right_28
*829 PHY_EDGE_ROW_29_Left_60
*830 PHY_EDGE_ROW_29_Right_29
*831 PHY_EDGE_ROW_2_Left_33
*832 PHY_EDGE_ROW_2_Right_2
*833 PHY_EDGE_ROW_30_Left_61
*834 PHY_EDGE_ROW_30_Right_30
*835 PHY_EDGE_ROW_3_Left_34
*836 PHY_EDGE_ROW_3_Right_3
*837 PHY_EDGE_ROW_4_Left_35
*838 PHY_EDGE_ROW_4_Right_4
*839 PHY_EDGE_ROW_5_Left_36
*840 PHY_EDGE_ROW_5_Right_5
*841 PHY_EDGE_ROW_6_Left_37
*842 PHY_EDGE_ROW_6_Right_6
*843 PHY_EDGE_ROW_7_Left_38
*844 PHY_EDGE_ROW_7_Right_7
*845 PHY_EDGE_ROW_8_Left_39
*846 PHY_EDGE_ROW_8_Right_8
*847 PHY_EDGE_ROW_9_Left_40
*848 PHY_EDGE_ROW_9_Right_9
*849 TAP_TAPCELL_ROW_0_62
*850 TAP_TAPCELL_ROW_0_63
*851 TAP_TAPCELL_ROW_0_64
*852 TAP_TAPCELL_ROW_0_65
*853 TAP_TAPCELL_ROW_0_66
*854 TAP_TAPCELL_ROW_0_67
*855 TAP_TAPCELL_ROW_10_95
*856 TAP_TAPCELL_ROW_10_96
*857 TAP_TAPCELL_ROW_10_97
*858 TAP_TAPCELL_ROW_11_100
*859 TAP_TAPCELL_ROW_11_98
*860 TAP_TAPCELL_ROW_11_99
*861 TAP_TAPCELL_ROW_12_101
*862 TAP_TAPCELL_ROW_12_102
*863 TAP_TAPCELL_ROW_12_103
*864 TAP_TAPCELL_ROW_13_104
*865 TAP_TAPCELL_ROW_13_105
*866 TAP_TAPCELL_ROW_13_106
*867 TAP_TAPCELL_ROW_14_107
*868 TAP_TAPCELL_ROW_14_108
*869 TAP_TAPCELL_ROW_14_109
*870 TAP_TAPCELL_ROW_15_110
*871 TAP_TAPCELL_ROW_15_111
*872 TAP_TAPCELL_ROW_15_112
*873 TAP_TAPCELL_ROW_16_113
*874 TAP_TAPCELL_ROW_16_114
*875 TAP_TAPCELL_ROW_16_115
*876 TAP_TAPCELL_ROW_17_116
*877 TAP_TAPCELL_ROW_17_117
*878 TAP_TAPCELL_ROW_17_118
*879 TAP_TAPCELL_ROW_18_119
*880 TAP_TAPCELL_ROW_18_120
*881 TAP_TAPCELL_ROW_18_121
*882 TAP_TAPCELL_ROW_19_122
*883 TAP_TAPCELL_ROW_19_123
*884 TAP_TAPCELL_ROW_19_124
*885 TAP_TAPCELL_ROW_1_68
*886 TAP_TAPCELL_ROW_1_69
*887 TAP_TAPCELL_ROW_1_70
*888 TAP_TAPCELL_ROW_20_125
*889 TAP_TAPCELL_ROW_20_126
*890 TAP_TAPCELL_ROW_20_127
*891 TAP_TAPCELL_ROW_21_128
*892 TAP_TAPCELL_ROW_21_129
*893 TAP_TAPCELL_ROW_21_130
*894 TAP_TAPCELL_ROW_22_131
*895 TAP_TAPCELL_ROW_22_132
*896 TAP_TAPCELL_ROW_22_133
*897 TAP_TAPCELL_ROW_23_134
*898 TAP_TAPCELL_ROW_23_135
*899 TAP_TAPCELL_ROW_23_136
*900 TAP_TAPCELL_ROW_24_137
*901 TAP_TAPCELL_ROW_24_138
*902 TAP_TAPCELL_ROW_24_139
*903 TAP_TAPCELL_ROW_25_140
*904 TAP_TAPCELL_ROW_25_141
*905 TAP_TAPCELL_ROW_25_142
*906 TAP_TAPCELL_ROW_26_143
*907 TAP_TAPCELL_ROW_26_144
*908 TAP_TAPCELL_ROW_26_145
*909 TAP_TAPCELL_ROW_27_146
*910 TAP_TAPCELL_ROW_27_147
*911 TAP_TAPCELL_ROW_27_148
*912 TAP_TAPCELL_ROW_28_149
*913 TAP_TAPCELL_ROW_28_150
*914 TAP_TAPCELL_ROW_28_151
*915 TAP_TAPCELL_ROW_29_152
*916 TAP_TAPCELL_ROW_29_153
*917 TAP_TAPCELL_ROW_29_154
*918 TAP_TAPCELL_ROW_2_71
*919 TAP_TAPCELL_ROW_2_72
*920 TAP_TAPCELL_ROW_2_73
*921 TAP_TAPCELL_ROW_30_155
*922 TAP_TAPCELL_ROW_30_156
*923 TAP_TAPCELL_ROW_30_157
*924 TAP_TAPCELL_ROW_30_158
*925 TAP_TAPCELL_ROW_30_159
*926 TAP_TAPCELL_ROW_30_160
*927 TAP_TAPCELL_ROW_3_74
*928 TAP_TAPCELL_ROW_3_75
*929 TAP_TAPCELL_ROW_3_76
*930 TAP_TAPCELL_ROW_4_77
*931 TAP_TAPCELL_ROW_4_78
*932 TAP_TAPCELL_ROW_4_79
*933 TAP_TAPCELL_ROW_5_80
*934 TAP_TAPCELL_ROW_5_81
*935 TAP_TAPCELL_ROW_5_82
*936 TAP_TAPCELL_ROW_6_83
*937 TAP_TAPCELL_ROW_6_84
*938 TAP_TAPCELL_ROW_6_85
*939 TAP_TAPCELL_ROW_7_86
*940 TAP_TAPCELL_ROW_7_87
*941 TAP_TAPCELL_ROW_7_88
*942 TAP_TAPCELL_ROW_8_89
*943 TAP_TAPCELL_ROW_8_90
*944 TAP_TAPCELL_ROW_8_91
*945 TAP_TAPCELL_ROW_9_92
*946 TAP_TAPCELL_ROW_9_93
*947 TAP_TAPCELL_ROW_9_94
*948 clkbuf_0_clk
*949 clkbuf_3_0__f_clk
*950 clkbuf_3_1__f_clk
*951 clkbuf_3_2__f_clk
*952 clkbuf_3_3__f_clk
*953 clkbuf_3_4__f_clk
*954 clkbuf_3_5__f_clk
*955 clkbuf_3_6__f_clk
*956 clkbuf_3_7__f_clk
*957 clkload0
*958 clkload1
*959 clkload2
*960 clkload3
*961 clkload4
*962 clkload5
*963 clkload6
*964 dsa\[0\]\._3_
*965 dsa\[0\]\._4_
*966 dsa\[0\]\._5_
*967 dsa\[0\]\._6_
*968 dsa\[0\]\._6__36
*969 dsa\[0\]\._7_
*970 dsa\[0\]\._7__37
*971 dsa\[0\]\._8_
*972 dsa\[0\]\._9_
*973 dsa\[10\]\._3_
*974 dsa\[10\]\._4_
*975 dsa\[10\]\._5_
*976 dsa\[10\]\._6_
*977 dsa\[10\]\._7_
*978 dsa\[10\]\._8_
*979 dsa\[10\]\._9_
*980 dsa\[11\]\._3_
*981 dsa\[11\]\._4_
*982 dsa\[11\]\._5_
*983 dsa\[11\]\._6_
*984 dsa\[11\]\._7_
*985 dsa\[11\]\._8_
*986 dsa\[11\]\._9_
*987 dsa\[12\]\._3_
*988 dsa\[12\]\._4_
*989 dsa\[12\]\._5_
*990 dsa\[12\]\._6_
*991 dsa\[12\]\._7_
*992 dsa\[12\]\._8_
*993 dsa\[12\]\._9_
*994 dsa\[13\]\._3_
*995 dsa\[13\]\._4_
*996 dsa\[13\]\._5_
*997 dsa\[13\]\._6_
*998 dsa\[13\]\._7_
*999 dsa\[13\]\._8_
*1000 dsa\[13\]\._9_
*1001 dsa\[14\]\._3_
*1002 dsa\[14\]\._4_
*1003 dsa\[14\]\._5_
*1004 dsa\[14\]\._6_
*1005 dsa\[14\]\._7_
*1006 dsa\[14\]\._8_
*1007 dsa\[14\]\._9_
*1008 dsa\[15\]\._3_
*1009 dsa\[15\]\._4_
*1010 dsa\[15\]\._5_
*1011 dsa\[15\]\._6_
*1012 dsa\[15\]\._7_
*1013 dsa\[15\]\._8_
*1014 dsa\[15\]\._9_
*1015 dsa\[16\]\._3_
*1016 dsa\[16\]\._4_
*1017 dsa\[16\]\._5_
*1018 dsa\[16\]\._6_
*1019 dsa\[16\]\._7_
*1020 dsa\[16\]\._8_
*1021 dsa\[16\]\._9_
*1022 dsa\[17\]\._3_
*1023 dsa\[17\]\._4_
*1024 dsa\[17\]\._5_
*1025 dsa\[17\]\._6_
*1026 dsa\[17\]\._7_
*1027 dsa\[17\]\._8_
*1028 dsa\[17\]\._9_
*1029 dsa\[18\]\._3_
*1030 dsa\[18\]\._4_
*1031 dsa\[18\]\._5_
*1032 dsa\[18\]\._6_
*1033 dsa\[18\]\._7_
*1034 dsa\[18\]\._8_
*1035 dsa\[18\]\._9_
*1036 dsa\[19\]\._3_
*1037 dsa\[19\]\._4_
*1038 dsa\[19\]\._5_
*1039 dsa\[19\]\._6_
*1040 dsa\[19\]\._7_
*1041 dsa\[19\]\._8_
*1042 dsa\[19\]\._9_
*1043 dsa\[1\]\._3_
*1044 dsa\[1\]\._4_
*1045 dsa\[1\]\._5_
*1046 dsa\[1\]\._6_
*1047 dsa\[1\]\._7_
*1048 dsa\[1\]\._8_
*1049 dsa\[1\]\._9_
*1050 dsa\[20\]\._3_
*1051 dsa\[20\]\._4_
*1052 dsa\[20\]\._5_
*1053 dsa\[20\]\._6_
*1054 dsa\[20\]\._7_
*1055 dsa\[20\]\._8_
*1056 dsa\[20\]\._9_
*1057 dsa\[21\]\._3_
*1058 dsa\[21\]\._4_
*1059 dsa\[21\]\._5_
*1060 dsa\[21\]\._6_
*1061 dsa\[21\]\._7_
*1062 dsa\[21\]\._8_
*1063 dsa\[21\]\._9_
*1064 dsa\[22\]\._3_
*1065 dsa\[22\]\._4_
*1066 dsa\[22\]\._5_
*1067 dsa\[22\]\._6_
*1068 dsa\[22\]\._7_
*1069 dsa\[22\]\._8_
*1070 dsa\[22\]\._9_
*1071 dsa\[23\]\._3_
*1072 dsa\[23\]\._4_
*1073 dsa\[23\]\._5_
*1074 dsa\[23\]\._6_
*1075 dsa\[23\]\._7_
*1076 dsa\[23\]\._8_
*1077 dsa\[23\]\._9_
*1078 dsa\[24\]\._3_
*1079 dsa\[24\]\._4_
*1080 dsa\[24\]\._5_
*1081 dsa\[24\]\._6_
*1082 dsa\[24\]\._7_
*1083 dsa\[24\]\._8_
*1084 dsa\[24\]\._9_
*1085 dsa\[25\]\._3_
*1086 dsa\[25\]\._4_
*1087 dsa\[25\]\._5_
*1088 dsa\[25\]\._6_
*1089 dsa\[25\]\._7_
*1090 dsa\[25\]\._8_
*1091 dsa\[25\]\._9_
*1092 dsa\[26\]\._3_
*1093 dsa\[26\]\._4_
*1094 dsa\[26\]\._5_
*1095 dsa\[26\]\._6_
*1096 dsa\[26\]\._7_
*1097 dsa\[26\]\._8_
*1098 dsa\[26\]\._9_
*1099 dsa\[27\]\._3_
*1100 dsa\[27\]\._4_
*1101 dsa\[27\]\._5_
*1102 dsa\[27\]\._6_
*1103 dsa\[27\]\._7_
*1104 dsa\[27\]\._8_
*1105 dsa\[27\]\._9_
*1106 dsa\[28\]\._3_
*1107 dsa\[28\]\._4_
*1108 dsa\[28\]\._5_
*1109 dsa\[28\]\._6_
*1110 dsa\[28\]\._7_
*1111 dsa\[28\]\._8_
*1112 dsa\[28\]\._9_
*1113 dsa\[29\]\._3_
*1114 dsa\[29\]\._4_
*1115 dsa\[29\]\._5_
*1116 dsa\[29\]\._6_
*1117 dsa\[29\]\._7_
*1118 dsa\[29\]\._8_
*1119 dsa\[29\]\._9_
*1120 dsa\[2\]\._3_
*1121 dsa\[2\]\._4_
*1122 dsa\[2\]\._5_
*1123 dsa\[2\]\._6_
*1124 dsa\[2\]\._7_
*1125 dsa\[2\]\._8_
*1126 dsa\[2\]\._9_
*1127 dsa\[30\]\._3_
*1128 dsa\[30\]\._4_
*1129 dsa\[30\]\._5_
*1130 dsa\[30\]\._6_
*1131 dsa\[30\]\._7_
*1132 dsa\[30\]\._8_
*1133 dsa\[30\]\._9_
*1134 dsa\[31\]\._3_
*1135 dsa\[31\]\._4_
*1136 dsa\[31\]\._5_
*1137 dsa\[31\]\._6_
*1138 dsa\[31\]\._7_
*1139 dsa\[31\]\._8_
*1140 dsa\[31\]\._9_
*1141 dsa\[3\]\._3_
*1142 dsa\[3\]\._4_
*1143 dsa\[3\]\._5_
*1144 dsa\[3\]\._6_
*1145 dsa\[3\]\._7_
*1146 dsa\[3\]\._8_
*1147 dsa\[3\]\._9_
*1148 dsa\[4\]\._3_
*1149 dsa\[4\]\._4_
*1150 dsa\[4\]\._5_
*1151 dsa\[4\]\._6_
*1152 dsa\[4\]\._7_
*1153 dsa\[4\]\._8_
*1154 dsa\[4\]\._9_
*1155 dsa\[5\]\._3_
*1156 dsa\[5\]\._4_
*1157 dsa\[5\]\._5_
*1158 dsa\[5\]\._6_
*1159 dsa\[5\]\._7_
*1160 dsa\[5\]\._8_
*1161 dsa\[5\]\._9_
*1162 dsa\[6\]\._3_
*1163 dsa\[6\]\._4_
*1164 dsa\[6\]\._5_
*1165 dsa\[6\]\._6_
*1166 dsa\[6\]\._7_
*1167 dsa\[6\]\._8_
*1168 dsa\[6\]\._9_
*1169 dsa\[7\]\._3_
*1170 dsa\[7\]\._4_
*1171 dsa\[7\]\._5_
*1172 dsa\[7\]\._6_
*1173 dsa\[7\]\._7_
*1174 dsa\[7\]\._8_
*1175 dsa\[7\]\._9_
*1176 dsa\[8\]\._3_
*1177 dsa\[8\]\._4_
*1178 dsa\[8\]\._5_
*1179 dsa\[8\]\._6_
*1180 dsa\[8\]\._7_
*1181 dsa\[8\]\._8_
*1182 dsa\[8\]\._9_
*1183 dsa\[9\]\._3_
*1184 dsa\[9\]\._4_
*1185 dsa\[9\]\._5_
*1186 dsa\[9\]\._6_
*1187 dsa\[9\]\._7_
*1188 dsa\[9\]\._8_
*1189 dsa\[9\]\._9_
*1190 input1
*1191 input10
*1192 input11
*1193 input12
*1194 input13
*1195 input14
*1196 input15
*1197 input16
*1198 input17
*1199 input18
*1200 input19
*1201 input2
*1202 input20
*1203 input21
*1204 input22
*1205 input23
*1206 input24
*1207 input25
*1208 input26
*1209 input27
*1210 input28
*1211 input29
*1212 input3
*1213 input30
*1214 input31
*1215 input32
*1216 input33
*1217 input34
*1218 input4
*1219 input5
*1220 input6
*1221 input7
*1222 input8
*1223 input9
*1224 output35

*PORTS
a[0] I
a[10] I
a[11] I
a[12] I
a[13] I
a[14] I
a[15] I
a[16] I
a[17] I
a[18] I
a[19] I
a[1] I
a[20] I
a[21] I
a[22] I
a[23] I
a[24] I
a[25] I
a[26] I
a[27] I
a[28] I
a[29] I
a[2] I
a[30] I
a[31] I
a[3] I
a[4] I
a[5] I
a[6] I
a[7] I
a[8] I
a[9] I
clk I
rst I
x I
y O

*D_NET *1 0.00106667
*CONN
*P a[0] I
*I *1190:A I *D sky130_fd_sc_hd__buf_1
*CAP
1 a[0] 0.000533335
2 *1190:A 0.000533335
3 *1190:A *1193:A 0
*RES
1 a[0] *1190:A 12.93 
*END

*D_NET *2 0.000958501
*CONN
*P a[10] I
*I *1201:A I *D sky130_fd_sc_hd__buf_1
*CAP
1 a[10] 0.000479251
2 *1201:A 0.000479251
3 *1201:A *1212:A 0
4 *1201:A *1215:A 0
*RES
1 a[10] *1201:A 12.135 
*END

*D_NET *3 0.00103451
*CONN
*P a[11] I
*I *1212:A I *D sky130_fd_sc_hd__buf_1
*CAP
1 a[11] 0.000517257
2 *1212:A 0.000517257
3 *1212:A *1218:A 0
4 *1201:A *1212:A 0
*RES
1 a[11] *1212:A 12.825 
*END

*D_NET *4 0.00103451
*CONN
*P a[12] I
*I *1218:A I *D sky130_fd_sc_hd__buf_1
*CAP
1 a[12] 0.000517257
2 *1218:A 0.000517257
3 *1218:A *1219:A 0
4 *1212:A *1218:A 0
*RES
1 a[12] *1218:A 12.825 
*END

*D_NET *5 0.000958501
*CONN
*P a[13] I
*I *1219:A I *D sky130_fd_sc_hd__buf_1
*CAP
1 a[13] 0.000479251
2 *1219:A 0.000479251
3 *1219:A *1220:A 0
4 *1218:A *1219:A 0
*RES
1 a[13] *1219:A 12.135 
*END

*D_NET *6 0.000988463
*CONN
*P a[14] I
*I *1220:A I *D sky130_fd_sc_hd__buf_1
*CAP
1 a[14] 0.0004664
2 *1220:A 0.0004664
3 *1220:A *1221:A 0
4 *1220:A *305:10 5.56629e-05
5 *1219:A *1220:A 0
*RES
1 a[14] *1220:A 12.135 
*END

*D_NET *7 0.00106668
*CONN
*P a[15] I
*I *1221:A I *D sky130_fd_sc_hd__buf_1
*CAP
1 a[15] 0.000533342
2 *1221:A 0.000533342
3 *1221:A *1222:A 0
4 *1221:A *305:10 0
5 *1220:A *1221:A 0
*RES
1 a[15] *1221:A 12.93 
*END

*D_NET *8 0.000961716
*CONN
*P a[16] I
*I *1222:A I *D sky130_fd_sc_hd__buf_1
*CAP
1 a[16] 0.000480858
2 *1222:A 0.000480858
3 *1222:A *1223:A 0
4 *1221:A *1222:A 0
*RES
1 a[16] *1222:A 12.135 
*END

*D_NET *9 0.00103451
*CONN
*P a[17] I
*I *1223:A I *D sky130_fd_sc_hd__clkbuf_1
*CAP
1 a[17] 0.000517257
2 *1223:A 0.000517257
3 *1223:A *1191:A 0
4 *1222:A *1223:A 0
*RES
1 a[17] *1223:A 12.825 
*END

*D_NET *10 0.00103451
*CONN
*P a[18] I
*I *1191:A I *D sky130_fd_sc_hd__clkbuf_1
*CAP
1 a[18] 0.000517257
2 *1191:A 0.000517257
3 *1191:A *1192:A 0
4 *1223:A *1191:A 0
*RES
1 a[18] *1191:A 12.825 
*END

*D_NET *11 0.000958501
*CONN
*P a[19] I
*I *1192:A I *D sky130_fd_sc_hd__clkbuf_1
*CAP
1 a[19] 0.000479251
2 *1192:A 0.000479251
3 *1192:A *1194:A 0
4 *1191:A *1192:A 0
*RES
1 a[19] *1192:A 12.135 
*END

*D_NET *12 0.000961716
*CONN
*P a[1] I
*I *1193:A I *D sky130_fd_sc_hd__buf_1
*CAP
1 a[1] 0.000480858
2 *1193:A 0.000480858
3 *1193:A *1205:A 0
4 *1190:A *1193:A 0
*RES
1 a[1] *1193:A 12.135 
*END

*D_NET *13 0.000958501
*CONN
*P a[20] I
*I *1194:A I *D sky130_fd_sc_hd__clkbuf_1
*CAP
1 a[20] 0.000479251
2 *1194:A 0.000479251
3 *1194:A *1195:A 0
4 *1192:A *1194:A 0
*RES
1 a[20] *1194:A 12.135 
*END

*D_NET *14 0.00103451
*CONN
*P a[21] I
*I *1195:A I *D sky130_fd_sc_hd__buf_1
*CAP
1 a[21] 0.000517257
2 *1195:A 0.000517257
3 *1195:A *1196:A 0
4 *1194:A *1195:A 0
*RES
1 a[21] *1195:A 12.825 
*END

*D_NET *15 0.00103451
*CONN
*P a[22] I
*I *1196:A I *D sky130_fd_sc_hd__buf_1
*CAP
1 a[22] 0.000517257
2 *1196:A 0.000517257
3 *1196:A *1197:A 0
4 *1195:A *1196:A 0
*RES
1 a[22] *1196:A 12.825 
*END

*D_NET *16 0.00114927
*CONN
*P a[23] I
*I *1197:A I *D sky130_fd_sc_hd__buf_1
*CAP
1 a[23] 0.000569644
2 *1197:A 0.000569644
3 *1197:A *969:A1 2.97004e-06
4 *1197:A *1198:A 0
5 *1197:A *278:14 7.00889e-06
6 *1196:A *1197:A 0
*RES
1 a[23] *1197:A 13.62 
*END

*D_NET *17 0.00120376
*CONN
*P a[24] I
*I *1198:A I *D sky130_fd_sc_hd__buf_1
*CAP
1 a[24] 0.000585376
2 *1198:A 0.000585376
3 *1198:A *969:A1 2.97004e-06
4 *1198:A *1199:A 0
5 *1198:A *279:8 3.00381e-05
6 *1197:A *1198:A 0
*RES
1 a[24] *1198:A 13.965 
*END

*D_NET *18 0.000961716
*CONN
*P a[25] I
*I *1199:A I *D sky130_fd_sc_hd__buf_1
*CAP
1 a[25] 0.000480858
2 *1199:A 0.000480858
3 *1199:A *1200:A 0
4 *1198:A *1199:A 0
*RES
1 a[25] *1199:A 12.135 
*END

*D_NET *19 0.00103907
*CONN
*P a[26] I
*I *1200:A I *D sky130_fd_sc_hd__buf_1
*CAP
1 a[26] 0.000519536
2 *1200:A 0.000519536
3 *1200:A *1202:A 0
4 *1199:A *1200:A 0
*RES
1 a[26] *1200:A 12.825 
*END

*D_NET *20 0.000995831
*CONN
*P a[27] I
*I *1202:A I *D sky130_fd_sc_hd__buf_1
*CAP
1 a[27] 0.000470918
2 *1202:A 0.000470918
3 *1202:A *1203:A 0
4 *1202:A *280:12 5.39961e-05
5 *1200:A *1202:A 0
*RES
1 a[27] *1202:A 12.135 
*END

*D_NET *21 0.000963061
*CONN
*P a[28] I
*I *1203:A I *D sky130_fd_sc_hd__buf_1
*CAP
1 a[28] 0.00048153
2 *1203:A 0.00048153
3 *1203:A *1204:A 0
4 *1203:A *280:12 0
5 *1202:A *1203:A 0
*RES
1 a[28] *1203:A 12.135 
*END

*D_NET *22 0.00104778
*CONN
*P a[29] I
*I *1204:A I *D sky130_fd_sc_hd__buf_1
*CAP
1 a[29] 0.000508624
2 *1204:A 0.000508624
3 *1204:A *1206:A 0
4 *1204:A *284:10 3.05295e-05
5 *1203:A *1204:A 0
*RES
1 a[29] *1204:A 12.825 
*END

*D_NET *23 0.00103861
*CONN
*P a[2] I
*I *1205:A I *D sky130_fd_sc_hd__buf_1
*CAP
1 a[2] 0.000505544
2 *1205:A 0.000505544
3 *1205:A *1208:A 0
4 *1205:A *274:14 2.75229e-05
5 *1193:A *1205:A 0
*RES
1 a[2] *1205:A 12.585 
*END

*D_NET *24 0.00139574
*CONN
*P a[30] I
*I *1206:A I *D sky130_fd_sc_hd__clkbuf_1
*CAP
1 a[30] 0.000320752
2 *1206:A 0.000320752
3 *1206:A *1207:A 0.000731799
4 *1206:A *284:10 2.24336e-05
5 *1204:A *1206:A 0
*RES
1 a[30] *1206:A 12.48 
*END

*D_NET *25 0.00172642
*CONN
*P a[31] I
*I *1207:A I *D sky130_fd_sc_hd__clkbuf_1
*CAP
1 a[31] 0.000472742
2 *1207:A 0.000472742
3 *1207:A *1043:B 2.24336e-05
4 *1207:A *284:10 0
5 *1207:A *287:8 2.67022e-05
6 *1206:A *1207:A 0.000731799
*RES
1 a[31] *1207:A 15.06 
*END

*D_NET *26 0.00104875
*CONN
*P a[3] I
*I *1208:A I *D sky130_fd_sc_hd__buf_1
*CAP
1 a[3] 0.000519622
2 *1208:A 0.000519622
3 *1208:A *1093:A2 9.50342e-06
4 *1208:A *1209:A 0
5 *1208:A *274:14 0
6 *1205:A *1208:A 0
*RES
1 a[3] *1208:A 12.825 
*END

*D_NET *27 0.00104363
*CONN
*P a[4] I
*I *1209:A I *D sky130_fd_sc_hd__buf_1
*CAP
1 a[4] 0.000521816
2 *1209:A 0.000521816
3 *1209:A *1210:A 0
4 *1208:A *1209:A 0
*RES
1 a[4] *1209:A 12.825 
*END

*D_NET *28 0.00107187
*CONN
*P a[5] I
*I *1210:A I *D sky130_fd_sc_hd__clkbuf_1
*CAP
1 a[5] 0.000535936
2 *1210:A 0.000535936
3 *1210:A *1211:A 0
4 *1209:A *1210:A 0
*RES
1 a[5] *1210:A 12.93 
*END

*D_NET *29 0.00107023
*CONN
*P a[6] I
*I *1211:A I *D sky130_fd_sc_hd__clkbuf_1
*CAP
1 a[6] 0.000535115
2 *1211:A 0.000535115
3 *1211:A *1213:A 0
4 *1210:A *1211:A 0
*RES
1 a[6] *1211:A 12.93 
*END

*D_NET *30 0.000964899
*CONN
*P a[7] I
*I *1213:A I *D sky130_fd_sc_hd__clkbuf_1
*CAP
1 a[7] 0.00048245
2 *1213:A 0.00048245
3 *1213:A *1214:A 0
4 *1211:A *1213:A 0
*RES
1 a[7] *1213:A 12.135 
*END

*D_NET *31 0.0010397
*CONN
*P a[8] I
*I *1214:A I *D sky130_fd_sc_hd__clkbuf_1
*CAP
1 a[8] 0.000519849
2 *1214:A 0.000519849
3 *1214:A *1215:A 0
4 *1214:A *295:14 0
5 *1213:A *1214:A 0
*RES
1 a[8] *1214:A 12.825 
*END

*D_NET *32 0.00103451
*CONN
*P a[9] I
*I *1215:A I *D sky130_fd_sc_hd__buf_1
*CAP
1 a[9] 0.000517257
2 *1215:A 0.000517257
3 *1201:A *1215:A 0
4 *1214:A *1215:A 0
*RES
1 a[9] *1215:A 12.825 
*END

*D_NET *33 0.00611172
*CONN
*P clk I
*I *948:A I *D sky130_fd_sc_hd__clkbuf_16
*CAP
1 clk 0.00254424
2 *948:A 0.00254424
3 *948:A *1141:B 0
4 *948:A *1142:B1 0.00038357
5 *948:A *1143:B 6.52906e-05
6 *948:A *1146:CLK 0.000163199
7 *948:A *1146:D 0.000235552
8 *948:A *1146:RESET_B 8.07672e-05
9 *948:A *1147:D 0
10 *948:A *1183:B 4.82863e-05
11 *948:A *224:6 2.50702e-05
12 *948:A *265:12 2.15025e-05
*RES
1 clk *948:A 34.4285 
*END

*D_NET *34 0.000786235
*CONN
*P rst I
*I *1216:A I *D sky130_fd_sc_hd__buf_12
*CAP
1 rst 0.000393118
2 *1216:A 0.000393118
*RES
1 rst *1216:A 10.35 
*END

*D_NET *37 0.000750699
*CONN
*P x I
*I *1217:A I *D sky130_fd_sc_hd__buf_12
*CAP
1 x 0.000375349
2 *1217:A 0.000375349
3 *1217:A *271:8 0
*RES
1 x *1217:A 8.8743 
*END

*D_NET *38 0.000645148
*CONN
*P y O
*I *1224:X O *D sky130_fd_sc_hd__buf_1
*CAP
1 y 0.000320111
2 *1224:X 0.000320111
3 y *40:39 4.9253e-06
*RES
1 *1224:X y 7.3443 
*END

*D_NET *39 0.0179888
*CONN
*I *956:A I *D sky130_fd_sc_hd__clkbuf_16
*I *954:A I *D sky130_fd_sc_hd__clkbuf_16
*I *949:A I *D sky130_fd_sc_hd__clkbuf_16
*I *950:A I *D sky130_fd_sc_hd__clkbuf_16
*I *953:A I *D sky130_fd_sc_hd__clkbuf_16
*I *955:A I *D sky130_fd_sc_hd__clkbuf_16
*I *952:A I *D sky130_fd_sc_hd__clkbuf_16
*I *951:A I *D sky130_fd_sc_hd__clkbuf_16
*I *948:X O *D sky130_fd_sc_hd__clkbuf_16
*CAP
1 *956:A 0.000239402
2 *954:A 0.000254413
3 *949:A 0.000646782
4 *950:A 0.000398787
5 *953:A 0.00025508
6 *955:A 0
7 *952:A 0
8 *951:A 0.000370407
9 *948:X 0.00045648
10 *39:70 0.00252003
11 *39:66 0.00172887
12 *39:51 0.00113569
13 *39:47 0.00120724
14 *39:40 0.00096301
15 *39:14 0.000939798
16 *39:10 0.00190165
17 *949:A *1020:RESET_B 1.0183e-05
18 *949:A *1056:CLK 3.95724e-05
19 *949:A *1056:RESET_B 0.000191831
20 *949:A *297:474 6.6564e-05
21 *949:A *302:18 0
22 *949:A *303:10 0
23 *950:A *302:18 0
24 *950:A *303:10 0
25 *950:A *303:14 2.42192e-05
26 *951:A *1064:C 0.000192125
27 *951:A *1066:A 9.50342e-06
28 *951:A *282:14 0.00013521
29 *951:A *296:12 0
30 *951:A *297:233 0.000314745
31 *953:A *1160:CLK 2.11921e-05
32 *953:A *1176:B 0
33 *953:A *1178:A 0
34 *953:A *1179:A 0
35 *953:A *45:55 0
36 *953:A *45:68 0
37 *953:A *278:14 0.000252977
38 *954:A *961:A 8.65961e-05
39 *39:10 *1007:D 0.000105841
40 *39:10 *1013:D 5.07419e-05
41 *39:10 *46:22 0
42 *39:10 *89:10 0.000169582
43 *39:10 *306:14 0
44 *39:14 *43:6 0.000213493
45 *39:14 *43:12 5.05437e-05
46 *39:40 *1003:A 4.82919e-05
47 *39:40 *1004:B 6.2061e-05
48 *39:40 *1007:D 7.71016e-05
49 *39:40 *46:6 0.000151541
50 *39:40 *46:10 0.000163204
51 *39:40 *306:14 0
52 *39:51 *983:A 8.78892e-05
53 *39:51 *1125:CLK 0
54 *39:51 *1179:A 0
55 *39:51 *1179:B 0
56 *39:51 *1183:C 0
57 *39:51 *1184:A1 0
58 *39:51 *265:12 0.000136877
59 *39:51 *266:12 0
60 *39:51 *277:10 0
61 *39:51 *278:14 0.00189487
62 *39:70 *1178:A 3.96653e-05
63 *39:70 *1178:B 4.82919e-05
64 *39:70 *44:74 0.000239813
65 *39:70 *44:85 8.65905e-05
*RES
1 *948:X *39:10 12.495 
2 *39:10 *39:14 11.42 
3 *39:14 *951:A 12.62 
4 *39:14 *952:A 1.6 
5 *39:10 *39:40 15.47 
6 *39:40 *955:A 1.6 
7 *39:40 *39:47 1.14 
8 *39:47 *39:51 23.78 
9 *39:51 *953:A 8.34 
10 *39:51 *39:66 2 
11 *39:66 *39:70 22.805 
12 *39:70 *950:A 10.335 
13 *39:70 *949:A 14.235 
14 *39:66 *954:A 5.155 
15 *39:47 *956:A 4.81 
*END

*D_NET *40 0.0123777
*CONN
*I *1112:CLK I *D sky130_fd_sc_hd__dfrtp_1
*I *1062:CLK I *D sky130_fd_sc_hd__dfrtp_1
*I *1118:CLK I *D sky130_fd_sc_hd__dfrtp_1
*I *1056:CLK I *D sky130_fd_sc_hd__dfrtp_1
*I *957:A I *D sky130_fd_sc_hd__clkbuf_4
*I *1041:CLK I *D sky130_fd_sc_hd__dfrtp_1
*I *1042:CLK I *D sky130_fd_sc_hd__dfrtp_1
*I *1132:CLK I *D sky130_fd_sc_hd__dfrtp_1
*I *1139:CLK I *D sky130_fd_sc_hd__dfrtp_1
*I *1140:CLK I *D sky130_fd_sc_hd__dfrtp_1
*I *949:X O *D sky130_fd_sc_hd__clkbuf_16
*CAP
1 *1112:CLK 0.000295766
2 *1062:CLK 0.000152132
3 *1118:CLK 0.000783977
4 *1056:CLK 0.000405622
5 *957:A 6.12284e-05
6 *1041:CLK 0.000159792
7 *1042:CLK 0
8 *1132:CLK 0.000281385
9 *1139:CLK 0
10 *1140:CLK 0.000329055
11 *949:X 0
12 *40:110 0.000499107
13 *40:95 0.00100781
14 *40:39 0.000946762
15 *40:33 0.000757601
16 *40:31 0.000352725
17 *40:16 0.000903927
18 *40:10 0.000594106
19 *40:8 0.000503705
20 *40:6 0.000211992
21 *1041:CLK *1140:D 1.87038e-05
22 *1041:CLK *1140:RESET_B 1.0555e-05
23 *1041:CLK *297:341 3.61491e-05
24 *1062:CLK *1062:RESET_B 0.000160314
25 *1062:CLK *1112:D 0
26 *1062:CLK *297:310 3.09233e-05
27 *1062:CLK *297:312 0.00013006
28 *1062:CLK *297:323 4.61595e-05
29 *1118:CLK *1113:A 4.66108e-05
30 *1118:CLK *1118:D 0.000208662
31 *1118:CLK *1118:RESET_B 0.000616319
32 *1132:CLK *271:8 0.0002099
33 *1140:CLK *1140:D 0.000345061
34 *1140:CLK *1140:RESET_B 6.27535e-05
35 *1140:CLK *297:337 5.39961e-05
36 *1140:CLK *297:341 5.73518e-05
37 *40:8 *297:327 9.23189e-05
38 *40:10 *297:327 0.000110683
39 *40:16 *1053:B 0
40 *40:16 *1133:D 0
41 *40:16 *297:327 0.000257005
42 *40:16 *297:331 0.000344964
43 *40:16 *297:333 9.47454e-05
44 *40:16 *297:335 5.4003e-05
45 *40:16 *297:337 0.000154488
46 *40:31 *1042:D 7.06594e-05
47 *40:33 *1042:D 1.77595e-05
48 *40:39 *1138:A1 0.000124895
49 *40:39 *1138:A2 8.37705e-05
50 *40:39 *1138:B1_N 4.82863e-05
51 *40:39 *1139:D 0
52 *40:39 *1224:A 0.000129465
53 *40:95 *297:323 2.92496e-05
54 *40:95 *297:325 0.000210839
55 *40:95 *297:327 0.000131408
56 *40:110 *297:323 9.84487e-05
57 y *40:39 4.9253e-06
58 *949:A *1056:CLK 3.95724e-05
*RES
1 *949:X *40:6 3.6 
2 *40:6 *40:8 1.125 
3 *40:8 *40:10 1.38 
4 *40:10 *40:16 11.115 
5 *40:16 *1140:CLK 10.62 
6 *40:16 *40:31 3.83 
7 *40:31 *40:33 1.485 
8 *40:33 *40:39 13.91 
9 *40:39 *1139:CLK 3.6 
10 *40:39 *1132:CLK 9.57 
11 *40:33 *1042:CLK 1.6 
12 *40:31 *1041:CLK 8.195 
13 *40:10 *957:A 4.395 
14 *40:8 *1056:CLK 9.24 
15 *40:6 *40:95 4.185 
16 *40:95 *1118:CLK 16.845 
17 *40:95 *40:110 1.2525 
18 *40:110 *1062:CLK 7.3575 
19 *40:110 *1112:CLK 8.1825 
*END

*D_NET *41 0.00591764
*CONN
*I *1034:CLK I *D sky130_fd_sc_hd__dfrtp_1
*I *1020:CLK I *D sky130_fd_sc_hd__dfrtp_1
*I *1119:CLK I *D sky130_fd_sc_hd__dfrtp_1
*I *1027:CLK I *D sky130_fd_sc_hd__dfrtp_1
*I *958:A I *D sky130_fd_sc_hd__bufinv_16
*I *1133:CLK I *D sky130_fd_sc_hd__dfrtp_1
*I *1055:CLK I *D sky130_fd_sc_hd__dfrtp_1
*I *950:X O *D sky130_fd_sc_hd__clkbuf_16
*CAP
1 *1034:CLK 0.000449689
2 *1020:CLK 0.000143679
3 *1119:CLK 0.000148195
4 *1027:CLK 0.000562246
5 *958:A 0
6 *1133:CLK 0.000116795
7 *1055:CLK 0.000142408
8 *950:X 0
9 *41:56 0.000715722
10 *41:40 0.000562246
11 *41:38 0.00051875
12 *41:14 0.000535751
13 *41:10 0.000517494
14 *41:4 0.000595733
15 *1034:CLK *1035:RESET_B 0
16 *1034:CLK *1039:B 9.78798e-05
17 *1034:CLK *298:326 0
18 *1034:CLK *302:18 0
19 *1055:CLK *1055:D 0.000161186
20 *1055:CLK *1055:RESET_B 0.000152878
21 *1133:CLK *1133:D 5.2888e-05
22 *1133:CLK *124:10 0
23 *41:10 *124:10 0
24 *41:10 *298:547 4.20983e-05
25 *41:14 *1055:D 2.75229e-05
26 *41:38 *124:10 0
27 *41:38 *136:12 6.55364e-05
28 *41:38 *298:547 9.88593e-05
29 *41:56 *1053:A 0
30 *41:56 *1056:D 5.20968e-05
31 *41:56 *136:12 8.42161e-05
32 *41:56 *293:18 0
33 *41:56 *298:547 6.23375e-05
34 *41:56 *298:572 1.14361e-05
*RES
1 *950:X *41:4 1.6 
2 *41:4 *41:10 4.01 
3 *41:10 *41:14 6.245 
4 *41:14 *1055:CLK 5.155 
5 *41:14 *1133:CLK 7.745 
6 *41:10 *41:38 2.7 
7 *41:38 *41:40 2 
8 *41:40 *958:A 1.6 
9 *41:40 *1027:CLK 9.64 
10 *41:38 *41:56 10.01 
11 *41:56 *1119:CLK 3.775 
12 *41:56 *1020:CLK 3.775 
13 *41:4 *1034:CLK 12.545 
*END

*D_NET *42 0.0117261
*CONN
*I *1090:CLK I *D sky130_fd_sc_hd__dfrtp_1
*I *1097:CLK I *D sky130_fd_sc_hd__dfrtp_1
*I *1083:CLK I *D sky130_fd_sc_hd__dfrtp_1
*I *1091:CLK I *D sky130_fd_sc_hd__dfrtp_1
*I *1076:CLK I *D sky130_fd_sc_hd__dfrtp_1
*I *1098:CLK I *D sky130_fd_sc_hd__dfrtp_1
*I *1104:CLK I *D sky130_fd_sc_hd__dfrtp_1
*I *1111:CLK I *D sky130_fd_sc_hd__dfrtp_1
*I *1069:CLK I *D sky130_fd_sc_hd__dfrtp_1
*I *1105:CLK I *D sky130_fd_sc_hd__dfrtp_1
*I *951:X O *D sky130_fd_sc_hd__clkbuf_16
*CAP
1 *1090:CLK 0
2 *1097:CLK 0.000678495
3 *1083:CLK 9.59566e-05
4 *1091:CLK 6.88021e-05
5 *1076:CLK 0
6 *1098:CLK 9.26117e-05
7 *1104:CLK 0
8 *1111:CLK 0.000334725
9 *1069:CLK 1.30736e-05
10 *1105:CLK 0.000285052
11 *951:X 3.76639e-05
12 *42:120 0.00131091
13 *42:103 0.00113273
14 *42:88 0.000623192
15 *42:54 0.000512403
16 *42:52 0.00083937
17 *42:44 0.000944615
18 *42:34 0.000636203
19 *42:10 0.000485321
20 *42:8 0.000335495
21 *1069:CLK *1069:RESET_B 1.83847e-05
22 *1069:CLK *298:204 4.82919e-05
23 *1083:CLK *1085:A 4.77719e-05
24 *1083:CLK *1086:A2 4.66108e-05
25 *1083:CLK *1087:B 5.64664e-05
26 *1083:CLK *298:37 0.000119866
27 *1091:CLK *1091:D 4.89295e-05
28 *1097:CLK *1097:RESET_B 8.34323e-05
29 *1098:CLK *271:8 0.000105849
30 *1105:CLK *1069:D 0
31 *1105:CLK *1105:D 7.43984e-05
32 *1111:CLK *271:8 0.000400831
33 *42:10 *1105:D 0
34 *42:10 *298:196 0.000178255
35 *42:10 *298:204 0.000143266
36 *42:34 *298:196 0.000229904
37 *42:44 *1076:D 7.63819e-05
38 *42:44 *1076:RESET_B 0.000232796
39 *42:54 *271:8 0.000208025
40 *42:88 *298:194 0.000178255
41 *42:88 *298:196 0.000141599
42 *42:103 *1085:A 0.000132842
43 *42:103 *1088:B 0.000115614
44 *42:103 *1089:A1 1.74958e-05
45 *42:103 *171:10 1.01155e-05
46 *42:103 *298:194 0.000340587
47 *42:120 *1090:RESET_B 1.13009e-05
48 *42:120 *1097:RESET_B 3.95409e-05
49 *42:120 *171:10 0.00011099
50 *42:120 *297:274 4.33275e-05
51 *42:120 *297:276 3.83995e-05
*RES
1 *951:X *42:8 4.05 
2 *42:8 *42:10 4.185 
3 *42:10 *1105:CLK 8.025 
4 *42:10 *1069:CLK 4.05 
5 *42:8 *42:34 2.655 
6 *42:34 *42:44 7.415 
7 *42:44 *42:52 10.16 
8 *42:52 *42:54 4.185 
9 *42:54 *1111:CLK 11.61 
10 *42:54 *1104:CLK 3.6 
11 *42:52 *1098:CLK 5.745 
12 *42:44 *1076:CLK 1.6 
13 *42:34 *42:88 5.675 
14 *42:88 *1091:CLK 2.74 
15 *42:88 *42:103 9.47 
16 *42:103 *1083:CLK 5.775 
17 *42:103 *42:120 10.31 
18 *42:120 *1097:CLK 9.94 
19 *42:120 *1090:CLK 1.6 
*END

*D_NET *43 0.00754004
*CONN
*I *1063:CLK I *D sky130_fd_sc_hd__dfrtp_1
*I *1013:CLK I *D sky130_fd_sc_hd__dfrtp_1
*I *999:CLK I *D sky130_fd_sc_hd__dfrtp_1
*I *1000:CLK I *D sky130_fd_sc_hd__dfrtp_1
*I *1084:CLK I *D sky130_fd_sc_hd__dfrtp_1
*I *1077:CLK I *D sky130_fd_sc_hd__dfrtp_1
*I *1006:CLK I *D sky130_fd_sc_hd__dfrtp_1
*I *959:A I *D sky130_fd_sc_hd__clkbuf_8
*I *1070:CLK I *D sky130_fd_sc_hd__dfrtp_1
*I *952:X O *D sky130_fd_sc_hd__clkbuf_16
*CAP
1 *1063:CLK 0.000434833
2 *1013:CLK 0.000323172
3 *999:CLK 0.000234521
4 *1000:CLK 0.000105729
5 *1084:CLK 0
6 *1077:CLK 3.37585e-05
7 *1006:CLK 0
8 *959:A 0.000219333
9 *1070:CLK 0.000180611
10 *952:X 0.000278286
11 *43:79 0.000942086
12 *43:54 0.000196782
13 *43:50 0.000504067
14 *43:39 0.000304294
15 *43:25 0.000219333
16 *43:23 0.000185336
17 *43:12 0.000411503
18 *43:6 0.000599965
19 *959:A *1077:D 0.000160483
20 *999:CLK *999:D 4.91189e-05
21 *999:CLK *302:10 0.000290458
22 *999:CLK *303:10 0
23 *1000:CLK *1084:RESET_B 0.000131791
24 *1013:CLK *1013:D 5.30673e-05
25 *1013:CLK *1063:D 0.000209579
26 *1013:CLK *297:175 1.1561e-05
27 *1013:CLK *297:181 2.33136e-05
28 *1013:CLK *302:10 0
29 *1063:CLK *1063:D 0.000119105
30 *1070:CLK *1070:RESET_B 6.42013e-05
31 *43:12 *297:171 0
32 *43:12 *302:10 7.81876e-05
33 *43:23 *297:171 0
34 *43:23 *302:10 0.000100308
35 *43:39 *297:171 0
36 *43:39 *302:10 0.00010141
37 *43:39 *303:10 0
38 *43:50 *302:10 0.000204367
39 *43:50 *303:10 0
40 *43:54 *1084:D 0.000122644
41 *43:54 *1084:RESET_B 0.000181951
42 *43:79 *297:173 0.000148756
43 *43:79 *297:175 5.20968e-05
44 *43:79 *302:10 0
45 *39:14 *43:6 0.000213493
46 *39:14 *43:12 5.05437e-05
*RES
1 *952:X *43:6 5.155 
2 *43:6 *43:12 4.43 
3 *43:12 *1070:CLK 6.465 
4 *43:12 *43:23 2.145 
5 *43:23 *43:25 2 
6 *43:25 *959:A 5.5 
7 *43:25 *1006:CLK 1.6 
8 *43:23 *43:39 2.145 
9 *43:39 *1077:CLK 4.05 
10 *43:39 *43:50 4.185 
11 *43:50 *43:54 4.865 
12 *43:54 *1084:CLK 1.6 
13 *43:54 *1000:CLK 3.775 
14 *43:50 *999:CLK 9.57 
15 *43:6 *43:79 6.185 
16 *43:79 *1013:CLK 10.335 
17 *43:79 *1063:CLK 8.805 
*END

*D_NET *44 0.00368426
*CONN
*I *1182:CLK I *D sky130_fd_sc_hd__dfrtp_1
*I *1014:CLK I *D sky130_fd_sc_hd__dfrtp_1
*I *960:A I *D sky130_fd_sc_hd__clkbuf_8
*I *1181:CLK I *D sky130_fd_sc_hd__dfrtp_1
*I *1021:CLK I *D sky130_fd_sc_hd__dfrtp_1
*I *1175:CLK I *D sky130_fd_sc_hd__dfrtp_1
*I *1028:CLK I *D sky130_fd_sc_hd__dfrtp_1
*I *1035:CLK I *D sky130_fd_sc_hd__dfrtp_1
*I *1174:CLK I *D sky130_fd_sc_hd__dfrtp_1
*I *953:X O *D sky130_fd_sc_hd__clkbuf_16
*CAP
1 *1182:CLK 0.000155741
2 *1014:CLK 0
3 *960:A 0
4 *1181:CLK 0
5 *1021:CLK 3.37585e-05
6 *1175:CLK 0
7 *1028:CLK 2.56379e-05
8 *1035:CLK 3.37585e-05
9 *1174:CLK 9.53373e-05
10 *953:X 0.000164221
11 *44:85 0.000308466
12 *44:74 0.000384211
13 *44:56 3.37585e-05
14 *44:54 0.000337119
15 *44:18 0.000357534
16 *44:16 0.000377321
17 *44:10 0.00025095
18 *44:8 0.00039756
19 *1028:CLK *298:384 1.83756e-05
20 *1174:CLK *1174:D 4.91189e-05
21 *1182:CLK *1014:D 6.9451e-05
22 *1182:CLK *1179:A 0
23 *1182:CLK *1179:B 0
24 *1182:CLK *1182:D 0
25 *44:10 *1025:B 0
26 *44:10 *1028:D 6.5265e-05
27 *44:10 *1181:D 0
28 *44:16 *1028:D 5.33787e-05
29 *44:16 *1175:D 6.7929e-05
30 *44:16 *1181:D 0
31 *44:16 *297:400 0
32 *44:18 *1035:D 0
33 *44:18 *1175:D 7.89689e-05
34 *44:54 *1181:D 0
35 *44:74 *1021:D 0
36 *44:85 *1014:RESET_B 0
37 *44:85 *1179:A 0
38 *39:70 *44:74 0.000239813
39 *39:70 *44:85 8.65905e-05
*RES
1 *953:X *44:8 5.775 
2 *44:8 *44:10 2.655 
3 *44:10 *44:16 2.7 
4 *44:16 *44:18 4.185 
5 *44:18 *1174:CLK 5.49 
6 *44:18 *1035:CLK 4.05 
7 *44:16 *1028:CLK 4.05 
8 *44:10 *1175:CLK 3.6 
9 *44:8 *44:54 1.635 
10 *44:54 *44:56 2 
11 *44:56 *1021:CLK 2.05 
12 *44:56 *1181:CLK 1.6 
13 *44:54 *44:74 6.575 
14 *44:74 *960:A 1.6 
15 *44:74 *44:85 4.685 
16 *44:85 *1014:CLK 3.6 
17 *44:85 *1182:CLK 6.54 
*END

*D_NET *45 0.00994866
*CONN
*I *1147:CLK I *D sky130_fd_sc_hd__dfrtp_1
*I *1154:CLK I *D sky130_fd_sc_hd__dfrtp_1
*I *1153:CLK I *D sky130_fd_sc_hd__dfrtp_1
*I *961:A I *D sky130_fd_sc_hd__clkinv_2
*I *1160:CLK I *D sky130_fd_sc_hd__dfrtp_1
*I *1161:CLK I *D sky130_fd_sc_hd__dfrtp_1
*I *1167:CLK I *D sky130_fd_sc_hd__dfrtp_1
*I *1168:CLK I *D sky130_fd_sc_hd__dfrtp_1
*I *954:X O *D sky130_fd_sc_hd__clkbuf_16
*CAP
1 *1147:CLK 0.000102405
2 *1154:CLK 0.000121528
3 *1153:CLK 0.000184147
4 *961:A 3.4408e-05
5 *1160:CLK 0.000109703
6 *1161:CLK 6.21799e-05
7 *1167:CLK 0.00055728
8 *1168:CLK 0.000103355
9 *954:X 0
10 *45:92 0.000748684
11 *45:68 0.000433992
12 *45:55 0.000727538
13 *45:18 0.000770828
14 *45:16 0.000456936
15 *45:10 0.000997613
16 *45:4 0.000835404
17 *1153:CLK *263:8 9.50342e-06
18 *1153:CLK *278:14 0.000130612
19 *1153:CLK *279:10 0
20 *1154:CLK *1154:D 5.72004e-05
21 *1160:CLK *1160:D 3.00381e-05
22 *1161:CLK *1161:RESET_B 7.8555e-05
23 *1161:CLK *1163:A1 0.000197264
24 *1161:CLK *1164:A 4.82919e-05
25 *1161:CLK *1164:B 4.66108e-05
26 *1167:CLK *1166:A1 8.63479e-05
27 *1167:CLK *1167:D 0.000119631
28 *1167:CLK *1170:A2 9.53428e-06
29 *1167:CLK *279:16 3.99879e-05
30 *1168:CLK *1162:A 0.000116151
31 *1168:CLK *1162:B 0.000193801
32 *1168:CLK *1164:A 4.08514e-05
33 *1168:CLK *1166:B1_N 5.83121e-06
34 *1168:CLK *1168:RESET_B 2.30292e-05
35 *1168:CLK *249:18 6.97202e-05
36 *1168:CLK *297:10 0.000114492
37 *45:10 *1155:A 0.000129047
38 *45:10 *1157:B 0.000116165
39 *45:10 *281:12 0
40 *45:10 *298:429 2.51475e-05
41 *45:16 *1155:A 0.00011686
42 *45:16 *1156:B1 0.000141592
43 *45:16 *1157:B 5.16348e-05
44 *45:16 *279:10 0
45 *45:16 *297:44 0.000529575
46 *45:18 *1162:A 0.000108329
47 *45:18 *1163:B1 0.000114492
48 *45:18 *297:10 7.30547e-05
49 *45:18 *297:20 0.00010596
50 *45:18 *297:44 6.45236e-05
51 *45:55 *1160:D 0.000181277
52 *45:55 *1160:RESET_B 7.69078e-05
53 *45:68 *1176:B 0
54 *45:68 *278:14 9.49203e-05
55 *45:68 *279:10 0
56 *45:92 *1151:B 0.000181005
57 *45:92 *1154:D 6.6925e-05
58 *953:A *1160:CLK 2.11921e-05
59 *953:A *45:55 0
60 *953:A *45:68 0
61 *954:A *961:A 8.65961e-05
*RES
1 *954:X *45:4 1.6 
2 *45:4 *45:10 7.34 
3 *45:10 *45:16 7.635 
4 *45:16 *45:18 2.91 
5 *45:18 *1168:CLK 7.155 
6 *45:18 *1167:CLK 10.53 
7 *45:16 *1161:CLK 5.775 
8 *45:10 *45:55 7.295 
9 *45:55 *1160:CLK 3.445 
10 *45:55 *45:68 5.93 
11 *45:68 *961:A 4.395 
12 *45:68 *1153:CLK 7.53 
13 *45:4 *45:92 10.22 
14 *45:92 *1154:CLK 6 
15 *45:92 *1147:CLK 5.235 
*END

*D_NET *46 0.00791721
*CONN
*I *962:A I *D sky130_fd_sc_hd__clkinv_2
*I *992:CLK I *D sky130_fd_sc_hd__dfrtp_1
*I *985:CLK I *D sky130_fd_sc_hd__dfrtp_1
*I *979:CLK I *D sky130_fd_sc_hd__dfrtp_1
*I *1125:CLK I *D sky130_fd_sc_hd__dfrtp_1
*I *1007:CLK I *D sky130_fd_sc_hd__dfrtp_1
*I *1188:CLK I *D sky130_fd_sc_hd__dfrtp_1
*I *978:CLK I *D sky130_fd_sc_hd__dfrtp_1
*I *955:X O *D sky130_fd_sc_hd__clkbuf_16
*CAP
1 *962:A 0
2 *992:CLK 0.000623177
3 *985:CLK 0.000107709
4 *979:CLK 0
5 *1125:CLK 0.00034227
6 *1007:CLK 0
7 *1188:CLK 0.000220299
8 *978:CLK 9.5418e-05
9 *955:X 6.01628e-05
10 *46:79 0.000893996
11 *46:55 0.000777862
12 *46:22 0.000509005
13 *46:18 0.000380509
14 *46:12 0.000740945
15 *46:10 0.00034207
16 *46:6 0.00012099
17 *978:CLK *978:D 3.02303e-05
18 *978:CLK *978:RESET_B 9.27495e-05
19 *985:CLK *1005:A1 4.82863e-05
20 *985:CLK *82:12 4.66108e-05
21 *985:CLK *297:165 0.000272978
22 *992:CLK *991:A1 0
23 *992:CLK *992:D 5.83121e-06
24 *992:CLK *68:10 0
25 *992:CLK *82:12 0.000249276
26 *992:CLK *84:8 0
27 *992:CLK *307:10 0
28 *1125:CLK *983:A 4.18603e-06
29 *1125:CLK *277:10 0.00015995
30 *1188:CLK *1010:B 2.75145e-05
31 *1188:CLK *1011:A 5.53249e-06
32 *1188:CLK *1188:RESET_B 0.000158078
33 *1188:CLK *89:10 0.000205376
34 *1188:CLK *298:645 0
35 *46:12 *1007:D 0
36 *46:12 *298:667 0
37 *46:18 *1007:D 0
38 *46:18 *298:667 0
39 *46:22 *1007:D 4.18603e-06
40 *46:22 *89:10 0.000158746
41 *46:22 *298:645 0
42 *46:22 *298:667 0
43 *46:55 *984:A1 0.00035041
44 *46:55 *985:RESET_B 0.000425312
45 *46:79 *1003:A 0
46 *46:79 *1004:B 0.00011852
47 *46:79 *1007:D 0
48 *46:79 *82:12 2.42802e-05
49 *46:79 *298:667 0
50 *39:10 *46:22 0
51 *39:40 *46:6 0.000151541
52 *39:40 *46:10 0.000163204
53 *39:51 *1125:CLK 0
*RES
1 *955:X *46:6 3.085 
2 *46:6 *46:10 3.485 
3 *46:10 *46:12 1.89 
4 *46:12 *46:18 4.94 
5 *46:18 *46:22 6.185 
6 *46:22 *978:CLK 5.535 
7 *46:22 *1188:CLK 9.27 
8 *46:18 *1007:CLK 1.6 
9 *46:12 *46:55 11.09 
10 *46:55 *1125:CLK 11.045 
11 *46:55 *979:CLK 1.6 
12 *46:10 *46:79 3.21 
13 *46:79 *985:CLK 6.48 
14 *46:79 *992:CLK 14.64 
15 *46:6 *962:A 1.6 
*END

*D_NET *47 0.0097302
*CONN
*I *1126:CLK I *D sky130_fd_sc_hd__dfrtp_1
*I *1189:CLK I *D sky130_fd_sc_hd__dfrtp_1
*I *1146:CLK I *D sky130_fd_sc_hd__dfrtp_1
*I *1049:CLK I *D sky130_fd_sc_hd__dfrtp_1
*I *986:CLK I *D sky130_fd_sc_hd__dfrtp_1
*I *972:CLK I *D sky130_fd_sc_hd__dfrtp_1
*I *971:CLK I *D sky130_fd_sc_hd__dfrtp_1
*I *1048:CLK I *D sky130_fd_sc_hd__dfrtp_1
*I *993:CLK I *D sky130_fd_sc_hd__dfrtp_1
*I *963:A I *D sky130_fd_sc_hd__clkbuf_4
*I *956:X O *D sky130_fd_sc_hd__clkbuf_16
*CAP
1 *1126:CLK 5.86359e-05
2 *1189:CLK 0
3 *1146:CLK 0.000184823
4 *1049:CLK 5.59147e-05
5 *986:CLK 0
6 *972:CLK 2.946e-05
7 *971:CLK 0.000150576
8 *1048:CLK 0.000567493
9 *993:CLK 0
10 *963:A 0
11 *956:X 0.000264959
12 *47:120 0.000214011
13 *47:99 0.000704012
14 *47:83 0.000250729
15 *47:40 0.00078466
16 *47:31 0.000395979
17 *47:25 0.000443649
18 *47:21 0.000353041
19 *47:12 0.000317619
20 *47:6 0.000872968
21 *971:CLK *969:A1 0
22 *971:CLK *971:D 0.000135236
23 *971:CLK *278:14 0.000175901
24 *971:CLK *298:113 1.37328e-05
25 *971:CLK *298:122 0.000241243
26 *1048:CLK *969:A2 7.67345e-05
27 *1048:CLK *969:B1_N 1.82667e-05
28 *1048:CLK *992:RESET_B 1.56428e-05
29 *1048:CLK *48:14 0.000397431
30 *1048:CLK *297:667 5.062e-06
31 *1049:CLK *297:645 6.52265e-05
32 *1126:CLK *1126:RESET_B 4.43682e-05
33 *1146:CLK *1146:D 3.00381e-05
34 *1146:CLK *1146:RESET_B 7.81706e-05
35 *1146:CLK *279:10 0
36 *1146:CLK *297:113 6.52181e-05
37 *47:12 *279:10 0.000166346
38 *47:12 *297:637 0
39 *47:21 *279:10 0.000167896
40 *47:21 *297:637 0
41 *47:25 *279:10 0.000162479
42 *47:31 *967:A 0
43 *47:31 *278:14 0.000366994
44 *47:31 *279:10 0
45 *47:31 *297:697 0.000164686
46 *47:40 *969:A1 0
47 *47:40 *992:RESET_B 0.000108329
48 *47:40 *278:14 0.000198293
49 *47:40 *279:10 0
50 *47:40 *297:697 3.09164e-05
51 *47:83 *986:D 0.000191731
52 *47:83 *986:RESET_B 4.70393e-05
53 *47:83 *297:645 0.000142669
54 *47:99 *279:10 0
55 *47:99 *297:113 0.000321529
56 *47:99 *297:122 0.00024514
57 *47:99 *297:637 0.000112971
58 *47:120 *1126:RESET_B 6.27438e-05
59 *47:120 *1189:RESET_B 2.20753e-05
60 *47:120 *297:99 4.43682e-05
61 *948:A *1146:CLK 0.000163199
*RES
1 *956:X *47:6 4.465 
2 *47:6 *47:12 5.72 
3 *47:12 *963:A 3.6 
4 *47:12 *47:21 2.0175 
5 *47:21 *47:25 4.0175 
6 *47:25 *47:31 9.05 
7 *47:31 *993:CLK 3.6 
8 *47:31 *47:40 2.4 
9 *47:40 *1048:CLK 12.03 
10 *47:40 *971:CLK 8.28 
11 *47:25 *972:CLK 2.05 
12 *47:21 *47:83 6.9275 
13 *47:83 *986:CLK 1.6 
14 *47:83 *1049:CLK 2.74 
15 *47:6 *47:99 10.775 
16 *47:99 *1146:CLK 7.89 
17 *47:99 *47:120 4.865 
18 *47:120 *1189:CLK 1.6 
19 *47:120 *1126:CLK 2.74 
*END

*D_NET *48 0.00102998
*CONN
*I *966:A I *D sky130_fd_sc_hd__nand2_1
*I *969:B1_N I *D sky130_fd_sc_hd__a21bo_1
*I *964:Y O *D sky130_fd_sc_hd__nand3_1
*CAP
1 *966:A 0
2 *969:B1_N 7.47041e-06
3 *964:Y 0.000170374
4 *48:14 0.000177844
5 *969:B1_N *969:A2 4.99619e-05
6 *48:14 *969:A2 2.86752e-05
7 *48:14 *49:12 5.05437e-05
8 *48:14 *281:12 4.94404e-05
9 *48:14 *297:667 7.99757e-05
10 *1048:CLK *969:B1_N 1.82667e-05
11 *1048:CLK *48:14 0.000397431
*RES
1 *964:Y *48:14 10.895 
2 *48:14 *969:B1_N 2.05 
3 *48:14 *966:A 1.6 
*END

*D_NET *49 0.000943272
*CONN
*I *966:B I *D sky130_fd_sc_hd__nand2_1
*I *969:A2 I *D sky130_fd_sc_hd__a21bo_1
*I *965:X O *D sky130_fd_sc_hd__a21o_1
*CAP
1 *966:B 0
2 *969:A2 0.000191704
3 *965:X 0.00010311
4 *49:12 0.000294814
5 *969:A2 *297:667 4.82919e-05
6 *49:12 *971:RESET_B 5.33787e-05
7 *49:12 *281:12 0
8 *49:12 *297:667 4.60584e-05
9 *969:B1_N *969:A2 4.99619e-05
10 *1048:CLK *969:A2 7.67345e-05
11 *48:14 *969:A2 2.86752e-05
12 *48:14 *49:12 5.05437e-05
*RES
1 *965:X *49:12 8.03 
2 *49:12 *969:A2 5.185 
3 *49:12 *966:B 1.6 
*END

*D_NET *50 0.000660782
*CONN
*I *967:B I *D sky130_fd_sc_hd__xnor2_1
*I *966:Y O *D sky130_fd_sc_hd__nand2_1
*CAP
1 *967:B 0.000221916
2 *966:Y 0.000221916
3 *967:B *972:D 4.9253e-06
4 *967:B *279:10 0.000116577
5 *967:B *297:673 9.54469e-05
*RES
1 *966:Y *967:B 11.76 
*END

*D_NET *51 0.000505241
*CONN
*I *964:A I *D sky130_fd_sc_hd__nand3_1
*I *965:B1 I *D sky130_fd_sc_hd__a21o_1
*I *971:Q O *D sky130_fd_sc_hd__dfrtp_1
*CAP
1 *964:A 6.56379e-05
2 *965:B1 1.85694e-05
3 *971:Q 5.48223e-05
4 *51:6 0.00013903
5 *964:A *965:A1 2.30292e-05
6 *964:A *965:A2 9.22715e-05
7 *964:A *288:10 3.26889e-05
8 *964:A *298:122 1.61831e-05
9 *965:B1 *965:A2 9.53428e-06
10 *51:6 *298:122 5.34747e-05
*RES
1 *971:Q *51:6 2.74 
2 *51:6 *965:B1 1.96 
3 *51:6 *964:A 3.445 
*END

*D_NET *52 0.000500956
*CONN
*I *971:D I *D sky130_fd_sc_hd__dfrtp_1
*I *969:X O *D sky130_fd_sc_hd__a21bo_1
*CAP
1 *971:D 0.00014525
2 *969:X 0.00014525
3 *971:D *969:A1 4.70343e-05
4 *971:D *298:122 2.8185e-05
5 *971:CLK *971:D 0.000135236
*RES
1 *969:X *971:D 10.41 
*END

*D_NET *53 0.0010799
*CONN
*I *1046:A I *D sky130_fd_sc_hd__xnor2_1
*I *1047:A1 I *D sky130_fd_sc_hd__a21bo_1
*I *972:Q O *D sky130_fd_sc_hd__dfrtp_1
*CAP
1 *1046:A 0
2 *1047:A1 0.000154936
3 *972:Q 0.000176858
4 *53:8 0.000331794
5 *1047:A1 *1045:B 0.000107716
6 *1047:A1 *1046:B 0.000118527
7 *1047:A1 *283:10 0
8 *1047:A1 *285:14 0.000190073
*RES
1 *972:Q *53:8 4.135 
2 *53:8 *1047:A1 9.98 
3 *53:8 *1046:A 1.6 
*END

*D_NET *54 0.000298017
*CONN
*I *972:D I *D sky130_fd_sc_hd__dfrtp_1
*I *967:Y O *D sky130_fd_sc_hd__xnor2_1
*CAP
1 *972:D 0.000146546
2 *967:Y 0.000146546
3 *972:D *279:10 0
4 *972:D *281:12 0
5 *967:B *972:D 4.9253e-06
*RES
1 *967:Y *972:D 9.12 
*END

*D_NET *55 0.000814736
*CONN
*I *977:B1_N I *D sky130_fd_sc_hd__a21bo_1
*I *975:A I *D sky130_fd_sc_hd__nand2_1
*I *973:Y O *D sky130_fd_sc_hd__nand3_1
*CAP
1 *977:B1_N 0
2 *975:A 9.50076e-05
3 *973:Y 0.000170602
4 *55:12 0.000265609
5 *975:A *977:A1 4.60584e-05
6 *975:A *977:A2 4.82863e-05
7 *55:12 *977:A2 0.000115146
8 *55:12 *56:10 0
9 *55:12 *58:16 7.4027e-05
*RES
1 *973:Y *55:12 8.3 
2 *55:12 *975:A 3.46 
3 *55:12 *977:B1_N 1.6 
*END

*D_NET *56 0.000673044
*CONN
*I *975:B I *D sky130_fd_sc_hd__nand2_1
*I *977:A2 I *D sky130_fd_sc_hd__a21bo_1
*I *974:X O *D sky130_fd_sc_hd__a21o_1
*CAP
1 *975:B 0
2 *977:A2 4.3372e-05
3 *974:X 8.19251e-05
4 *56:10 0.000125297
5 *977:A2 *977:A1 0.000203178
6 *56:10 *976:A 1.53032e-05
7 *56:10 *976:B 4.05358e-05
8 *56:10 *58:16 0
9 *975:A *977:A2 4.82863e-05
10 *55:12 *977:A2 0.000115146
11 *55:12 *56:10 0
*RES
1 *974:X *56:10 6.98 
2 *56:10 *977:A2 3.775 
3 *56:10 *975:B 1.6 
*END

*D_NET *57 0.00028232
*CONN
*I *976:B I *D sky130_fd_sc_hd__xnor2_1
*I *975:Y O *D sky130_fd_sc_hd__nand2_1
*CAP
1 *976:B 5.65335e-05
2 *975:Y 5.65335e-05
3 *976:B *976:A 0.000120186
4 *976:B *58:16 0
5 *976:B *276:16 8.53113e-06
6 *976:B *277:10 0
7 *56:10 *976:B 4.05358e-05
*RES
1 *975:Y *976:B 8.835 
*END

*D_NET *58 0.00102334
*CONN
*I *974:B1 I *D sky130_fd_sc_hd__a21o_1
*I *973:A I *D sky130_fd_sc_hd__nand3_1
*I *978:Q O *D sky130_fd_sc_hd__dfrtp_1
*CAP
1 *974:B1 0.000124076
2 *973:A 0
3 *978:Q 0.000222854
4 *58:16 0.00034693
5 *974:B1 *276:16 4.99619e-05
6 *58:16 *976:A 0
7 *58:16 *978:D 7.08986e-05
8 *58:16 *60:10 0
9 *58:16 *298:645 0.00011562
10 *58:16 *298:667 1.89685e-05
11 *976:B *58:16 0
12 *55:12 *58:16 7.4027e-05
13 *56:10 *58:16 0
*RES
1 *978:Q *58:16 8.475 
2 *58:16 *973:A 3.6 
3 *58:16 *974:B1 5.19 
*END

*D_NET *59 0.0010908
*CONN
*I *978:D I *D sky130_fd_sc_hd__dfrtp_1
*I *977:X O *D sky130_fd_sc_hd__a21bo_1
*CAP
1 *978:D 0.000436455
2 *977:X 0.000436455
3 *978:D *978:RESET_B 4.44057e-05
4 *978:D *298:645 7.23602e-05
5 *978:CLK *978:D 3.02303e-05
6 *58:16 *978:D 7.08986e-05
*RES
1 *977:X *978:D 12.7087 
*END

*D_NET *60 0.00196876
*CONN
*I *976:A I *D sky130_fd_sc_hd__xnor2_1
*I *977:A1 I *D sky130_fd_sc_hd__a21bo_1
*I *1189:Q O *D sky130_fd_sc_hd__dfrtp_1
*CAP
1 *976:A 0.000105067
2 *977:A1 0.000131849
3 *1189:Q 0.000555103
4 *60:10 0.000792018
5 *976:A *277:10 0
6 *60:10 *277:10 0
7 *975:A *977:A1 4.60584e-05
8 *976:B *976:A 0.000120186
9 *977:A2 *977:A1 0.000203178
10 *56:10 *976:A 1.53032e-05
11 *58:16 *976:A 0
12 *58:16 *60:10 0
*RES
1 *1189:Q *60:10 9.915 
2 *60:10 *977:A1 6.465 
3 *60:10 *976:A 5.745 
*END

*D_NET *61 0.00289771
*CONN
*I *983:A I *D sky130_fd_sc_hd__xnor2_1
*I *984:A1 I *D sky130_fd_sc_hd__a21bo_1
*I *979:Q O *D sky130_fd_sc_hd__dfrtp_1
*CAP
1 *983:A 0.000258641
2 *984:A1 0.000187418
3 *979:Q 0.000272602
4 *61:6 0.000718661
5 *983:A *983:B 0.00011852
6 *983:A *984:B1_N 0.000175855
7 *983:A *63:10 3.27033e-05
8 *983:A *68:10 3.03684e-05
9 *983:A *278:14 0.000155139
10 *984:A1 *979:D 0.000144489
11 *984:A1 *985:RESET_B 6.03532e-05
12 *61:6 *979:RESET_B 2.65337e-05
13 *61:6 *985:RESET_B 0.000227884
14 *61:6 *297:126 4.60584e-05
15 *1125:CLK *983:A 4.18603e-06
16 *39:51 *983:A 8.78892e-05
17 *46:55 *984:A1 0.00035041
*RES
1 *979:Q *61:6 7.225 
2 *61:6 *984:A1 6.775 
3 *61:6 *983:A 12.62 
*END

*D_NET *62 0.000570906
*CONN
*I *979:D I *D sky130_fd_sc_hd__dfrtp_1
*I *976:Y O *D sky130_fd_sc_hd__xnor2_1
*CAP
1 *979:D 0.000177032
2 *976:Y 0.000177032
3 *979:D *276:16 0
4 *979:D *277:10 7.23533e-05
5 *984:A1 *979:D 0.000144489
*RES
1 *976:Y *979:D 9.82875 
*END

*D_NET *63 0.0016424
*CONN
*I *982:A I *D sky130_fd_sc_hd__nand2_1
*I *984:B1_N I *D sky130_fd_sc_hd__a21bo_1
*I *980:Y O *D sky130_fd_sc_hd__nand3_1
*CAP
1 *982:A 0
2 *984:B1_N 0.000260917
3 *980:Y 0.000167676
4 *63:10 0.000428593
5 *984:B1_N *985:RESET_B 0.000238919
6 *984:B1_N *277:10 0.000175855
7 *63:10 *980:C 2.11084e-05
8 *63:10 *983:B 7.23533e-05
9 *63:10 *68:10 1.10808e-05
10 *63:10 *277:10 5.73362e-05
11 *983:A *984:B1_N 0.000175855
12 *983:A *63:10 3.27033e-05
*RES
1 *980:Y *63:10 6.465 
2 *63:10 *984:B1_N 9.45 
3 *63:10 *982:A 3.6 
*END

*D_NET *64 0.00189317
*CONN
*I *982:B I *D sky130_fd_sc_hd__nand2_1
*I *984:A2 I *D sky130_fd_sc_hd__a21bo_1
*I *981:X O *D sky130_fd_sc_hd__a21o_1
*CAP
1 *982:B 0.000292003
2 *984:A2 0.000158238
3 *981:X 0.000154948
4 *64:10 0.000605188
5 *982:B *66:12 8.16598e-05
6 *984:A2 *985:RESET_B 0.000178512
7 *984:A2 *276:16 0.000198196
8 *984:A2 *298:667 0
9 *64:10 *980:B 0.000122337
10 *64:10 *985:RESET_B 2.4997e-05
11 *64:10 *276:16 7.70938e-05
12 *64:10 *298:667 0
*RES
1 *981:X *64:10 6.375 
2 *64:10 *984:A2 8.235 
3 *64:10 *982:B 8.205 
*END

*D_NET *65 0.000308043
*CONN
*I *983:B I *D sky130_fd_sc_hd__xnor2_1
*I *982:Y O *D sky130_fd_sc_hd__nand2_1
*CAP
1 *983:B 4.37659e-05
2 *982:Y 4.37659e-05
3 *983:B *277:10 2.96383e-05
4 *983:B *278:14 0
5 *983:A *983:B 0.00011852
6 *63:10 *983:B 7.23533e-05
*RES
1 *982:Y *983:B 8.835 
*END

*D_NET *66 0.00086801
*CONN
*I *980:A I *D sky130_fd_sc_hd__nand3_1
*I *981:B1 I *D sky130_fd_sc_hd__a21o_1
*I *985:Q O *D sky130_fd_sc_hd__dfrtp_1
*CAP
1 *980:A 0
2 *981:B1 2.46411e-05
3 *985:Q 0.000216097
4 *66:12 0.000240738
5 *981:B1 *980:B 0.000122331
6 *981:B1 *980:C 0.000122331
7 *66:12 *276:16 6.02123e-05
8 *66:12 *277:10 0
9 *982:B *66:12 8.16598e-05
*RES
1 *985:Q *66:12 8.81 
2 *66:12 *981:B1 2.74 
3 *66:12 *980:A 1.6 
*END

*D_NET *67 0.000796544
*CONN
*I *985:D I *D sky130_fd_sc_hd__dfrtp_1
*I *984:X O *D sky130_fd_sc_hd__a21bo_1
*CAP
1 *985:D 0.000215675
2 *984:X 0.000215675
3 *985:D *985:RESET_B 0.000296088
4 *985:D *297:165 6.91063e-05
5 *985:D *298:667 0
*RES
1 *984:X *985:D 12.105 
*END

*D_NET *68 0.00329732
*CONN
*I *991:A1 I *D sky130_fd_sc_hd__a21bo_1
*I *990:A I *D sky130_fd_sc_hd__xnor2_1
*I *986:Q O *D sky130_fd_sc_hd__dfrtp_1
*CAP
1 *991:A1 0.000197641
2 *990:A 0
3 *986:Q 0.00100699
4 *68:10 0.00120463
5 *991:A1 *989:B 0.000129687
6 *991:A1 *991:A2 2.75229e-05
7 *991:A1 *992:D 6.55406e-05
8 *991:A1 *70:8 0
9 *68:10 *980:C 0.00020655
10 *68:10 *986:D 0.000162311
11 *68:10 *989:B 3.77199e-05
12 *68:10 *990:B 0.000120186
13 *68:10 *82:12 0
14 *68:10 *275:16 0
15 *68:10 *298:701 9.70988e-05
16 *983:A *68:10 3.03684e-05
17 *992:CLK *991:A1 0
18 *992:CLK *68:10 0
19 *63:10 *68:10 1.10808e-05
*RES
1 *986:Q *68:10 18.39 
2 *68:10 *990:A 3.6 
3 *68:10 *991:A1 8.085 
*END

*D_NET *69 0.00138098
*CONN
*I *986:D I *D sky130_fd_sc_hd__dfrtp_1
*I *983:Y O *D sky130_fd_sc_hd__xnor2_1
*CAP
1 *986:D 0.00051347
2 *983:Y 0.00051347
3 *47:83 *986:D 0.000191731
4 *68:10 *986:D 0.000162311
*RES
1 *983:Y *986:D 10.715 
*END

*D_NET *70 0.00149837
*CONN
*I *991:B1_N I *D sky130_fd_sc_hd__a21bo_1
*I *989:A I *D sky130_fd_sc_hd__nand2_1
*I *987:Y O *D sky130_fd_sc_hd__nand3_1
*CAP
1 *991:B1_N 0
2 *989:A 0.000236481
3 *987:Y 0.000164839
4 *70:8 0.00040132
5 *989:A *989:B 0.00030413
6 *989:A *73:12 4.61744e-05
7 *989:A *275:16 0.000105757
8 *70:8 *71:6 2.75229e-05
9 *70:8 *298:102 0.000173846
10 *70:8 *298:113 3.83041e-05
11 *991:A1 *70:8 0
*RES
1 *987:Y *70:8 4.48 
2 *70:8 *989:A 11.825 
3 *70:8 *991:B1_N 1.6 
*END

*D_NET *71 0.00139684
*CONN
*I *989:B I *D sky130_fd_sc_hd__nand2_1
*I *991:A2 I *D sky130_fd_sc_hd__a21bo_1
*I *988:X O *D sky130_fd_sc_hd__a21o_1
*CAP
1 *989:B 0.000200316
2 *991:A2 4.01842e-05
3 *988:X 3.69632e-05
4 *71:6 0.000277463
5 *989:B *990:B 6.55328e-05
6 *989:B *73:12 0
7 *991:A2 *298:102 0.000124895
8 *71:6 *298:102 0.0001249
9 *989:A *989:B 0.00030413
10 *991:A1 *989:B 0.000129687
11 *991:A1 *991:A2 2.75229e-05
12 *68:10 *989:B 3.77199e-05
13 *70:8 *71:6 2.75229e-05
*RES
1 *988:X *71:6 2.74 
2 *71:6 *991:A2 2.74 
3 *71:6 *989:B 12.08 
*END

*D_NET *72 0.000502495
*CONN
*I *990:B I *D sky130_fd_sc_hd__xnor2_1
*I *989:Y O *D sky130_fd_sc_hd__nand2_1
*CAP
1 *990:B 0.00012227
2 *989:Y 0.00012227
3 *990:B *297:697 7.22354e-05
4 *989:B *990:B 6.55328e-05
5 *68:10 *990:B 0.000120186
*RES
1 *989:Y *990:B 9.72 
*END

*D_NET *73 0.000832848
*CONN
*I *987:A I *D sky130_fd_sc_hd__nand3_1
*I *988:B1 I *D sky130_fd_sc_hd__a21o_1
*I *992:Q O *D sky130_fd_sc_hd__dfrtp_1
*CAP
1 *987:A 5.76247e-05
2 *988:B1 0
3 *992:Q 9.80209e-05
4 *73:12 0.000155646
5 *987:A *987:B 8.52545e-05
6 *987:A *988:A2 1.35397e-05
7 *987:A *273:12 8.40213e-05
8 *987:A *298:102 9.85313e-05
9 *987:A *298:113 3.97655e-05
10 *73:12 *992:RESET_B 1.7386e-05
11 *73:12 *275:16 0.000136884
12 *989:A *73:12 4.61744e-05
13 *989:B *73:12 0
*RES
1 *992:Q *73:12 7.685 
2 *73:12 *988:B1 1.6 
3 *73:12 *987:A 3.805 
*END

*D_NET *74 0.00053885
*CONN
*I *992:D I *D sky130_fd_sc_hd__dfrtp_1
*I *991:X O *D sky130_fd_sc_hd__a21bo_1
*CAP
1 *992:D 0.000233739
2 *991:X 0.000233739
3 *991:A1 *992:D 6.55406e-05
4 *992:CLK *992:D 5.83121e-06
*RES
1 *991:X *992:D 11.1 
*END

*D_NET *75 0.0021916
*CONN
*I *998:A1 I *D sky130_fd_sc_hd__a21bo_1
*I *997:A I *D sky130_fd_sc_hd__xnor2_1
*I *993:Q O *D sky130_fd_sc_hd__dfrtp_1
*CAP
1 *998:A1 3.75513e-05
2 *997:A 5.26048e-05
3 *993:Q 0.000827348
4 *75:8 0.000917504
5 *997:A *997:B 7.00889e-06
6 *998:A1 *304:10 0.000141606
7 *998:A1 *305:10 8.08439e-05
8 *75:8 *993:D 1.83756e-05
9 *75:8 *997:B 0.000108761
*RES
1 *993:Q *75:8 13.105 
2 *75:8 *997:A 2.41 
3 *75:8 *998:A1 7.235 
*END

*D_NET *76 0.000939498
*CONN
*I *993:D I *D sky130_fd_sc_hd__dfrtp_1
*I *990:Y O *D sky130_fd_sc_hd__xnor2_1
*CAP
1 *993:D 0.000402199
2 *990:Y 0.000402199
3 *993:D *993:RESET_B 0.000116724
4 *75:8 *993:D 1.83756e-05
*RES
1 *990:Y *993:D 9.635 
*END

*D_NET *77 0.00093152
*CONN
*I *996:A I *D sky130_fd_sc_hd__nand2_1
*I *998:B1_N I *D sky130_fd_sc_hd__a21bo_1
*I *994:Y O *D sky130_fd_sc_hd__nand3_1
*CAP
1 *996:A 0
2 *998:B1_N 2.22788e-05
3 *994:Y 0.000229812
4 *77:12 0.00025209
5 *998:B1_N *998:A2 4.82863e-05
6 *77:12 *994:A 3.83041e-05
7 *77:12 *995:A1 8.65961e-05
8 *77:12 *78:10 7.63204e-05
9 *77:12 *80:6 0.000124007
10 *77:12 *298:72 3.24154e-05
11 *77:12 *298:87 1.33293e-05
12 *77:12 *304:10 0
13 *77:12 *306:14 8.08153e-06
*RES
1 *994:Y *77:12 10.355 
2 *77:12 *998:B1_N 2.05 
3 *77:12 *996:A 1.6 
*END

*D_NET *78 0.000799947
*CONN
*I *998:A2 I *D sky130_fd_sc_hd__a21bo_1
*I *996:B I *D sky130_fd_sc_hd__nand2_1
*I *995:X O *D sky130_fd_sc_hd__a21o_1
*CAP
1 *998:A2 0.000216329
2 *996:B 0
3 *995:X 5.08858e-05
4 *78:10 0.000267214
5 *78:10 *306:14 0.000140912
6 *998:B1_N *998:A2 4.82863e-05
7 *77:12 *78:10 7.63204e-05
*RES
1 *995:X *78:10 7.235 
2 *78:10 *996:B 1.6 
3 *78:10 *998:A2 4.825 
*END

*D_NET *79 0.000534219
*CONN
*I *997:B I *D sky130_fd_sc_hd__xnor2_1
*I *996:Y O *D sky130_fd_sc_hd__nand2_1
*CAP
1 *997:B 0.00015682
2 *996:Y 0.00015682
3 *997:B *1000:D 5.05437e-05
4 *997:B *304:10 0
5 *997:B *306:14 5.42646e-05
6 *997:A *997:B 7.00889e-06
7 *75:8 *997:B 0.000108761
*RES
1 *996:Y *997:B 10.665 
*END

*D_NET *80 0.000873013
*CONN
*I *994:A I *D sky130_fd_sc_hd__nand3_1
*I *995:B1 I *D sky130_fd_sc_hd__a21o_1
*I *999:Q O *D sky130_fd_sc_hd__dfrtp_1
*CAP
1 *994:A 0.000180302
2 *995:B1 2.04433e-05
3 *999:Q 2.79347e-05
4 *80:6 0.00022868
5 *994:A *995:A1 7.29716e-05
6 *994:A *298:72 1.83756e-05
7 *994:A *306:14 4.74882e-05
8 *994:A *307:10 6.43553e-05
9 *995:B1 *995:A1 0
10 *995:B1 *995:A2 8.58302e-07
11 *80:6 *298:72 4.92935e-05
12 *77:12 *994:A 3.83041e-05
13 *77:12 *80:6 0.000124007
*RES
1 *999:Q *80:6 2.74 
2 *80:6 *995:B1 1.96 
3 *80:6 *994:A 8.93 
*END

*D_NET *81 0.000657607
*CONN
*I *999:D I *D sky130_fd_sc_hd__dfrtp_1
*I *998:X O *D sky130_fd_sc_hd__a21bo_1
*CAP
1 *999:D 0.000280727
2 *998:X 0.000280727
3 *999:D *303:10 4.70343e-05
4 *999:CLK *999:D 4.91189e-05
*RES
1 *998:X *999:D 11.1 
*END

*D_NET *82 0.00147716
*CONN
*I *1004:A I *D sky130_fd_sc_hd__xnor2_1
*I *1005:A1 I *D sky130_fd_sc_hd__a21bo_1
*I *1000:Q O *D sky130_fd_sc_hd__dfrtp_1
*CAP
1 *1004:A 0
2 *1005:A1 0.000125435
3 *1000:Q 0.000272651
4 *82:12 0.000398086
5 *1005:A1 *1007:D 3.45679e-05
6 *1005:A1 *297:165 0.000277968
7 *82:12 *298:667 0
8 *985:CLK *1005:A1 4.82863e-05
9 *985:CLK *82:12 4.66108e-05
10 *992:CLK *82:12 0.000249276
11 *46:79 *82:12 2.42802e-05
12 *68:10 *82:12 0
*RES
1 *1000:Q *82:12 11.51 
2 *82:12 *1005:A1 4.81 
3 *82:12 *1004:A 1.6 
*END

*D_NET *83 0.000354538
*CONN
*I *1000:D I *D sky130_fd_sc_hd__dfrtp_1
*I *997:Y O *D sky130_fd_sc_hd__xnor2_1
*CAP
1 *1000:D 0.000128476
2 *997:Y 0.000128476
3 *1000:D *304:10 4.7043e-05
4 *1000:D *306:14 0
5 *997:B *1000:D 5.05437e-05
*RES
1 *997:Y *1000:D 9.375 
*END

*D_NET *84 0.000817194
*CONN
*I *1005:B1_N I *D sky130_fd_sc_hd__a21bo_1
*I *1003:A I *D sky130_fd_sc_hd__nand2_1
*I *1001:Y O *D sky130_fd_sc_hd__nand3_1
*CAP
1 *1005:B1_N 3.38648e-05
2 *1003:A 0.000180095
3 *1001:Y 5.51777e-05
4 *84:8 0.000269138
5 *1003:A *1003:B 0
6 *1003:A *1004:B 3.45588e-05
7 *1003:A *1007:D 0.000139245
8 *1003:A *85:10 0
9 *1005:B1_N *297:165 4.82919e-05
10 *84:8 *1002:A1 8.53113e-06
11 *84:8 *85:10 0
12 *992:CLK *84:8 0
13 *39:40 *1003:A 4.82919e-05
14 *46:79 *1003:A 0
*RES
1 *1001:Y *84:8 4.47 
2 *84:8 *1003:A 7.305 
3 *84:8 *1005:B1_N 4.05 
*END

*D_NET *85 0.000693407
*CONN
*I *1005:A2 I *D sky130_fd_sc_hd__a21bo_1
*I *1003:B I *D sky130_fd_sc_hd__nand2_1
*I *1002:X O *D sky130_fd_sc_hd__a21o_1
*CAP
1 *1005:A2 0
2 *1003:B 0.000101199
3 *1002:X 0.000132081
4 *85:10 0.00023328
5 *1003:B *306:14 0.000118504
6 *85:10 *1002:A1 2.97004e-06
7 *85:10 *87:12 4.80285e-05
8 *85:10 *306:14 5.7344e-05
9 *1003:A *1003:B 0
10 *1003:A *85:10 0
11 *84:8 *85:10 0
*RES
1 *1002:X *85:10 5.775 
2 *85:10 *1003:B 6 
3 *85:10 *1005:A2 3.6 
*END

*D_NET *86 0.000799309
*CONN
*I *1004:B I *D sky130_fd_sc_hd__xnor2_1
*I *1003:Y O *D sky130_fd_sc_hd__nand2_1
*CAP
1 *1004:B 0.000292085
2 *1003:Y 0.000292085
3 *1003:A *1004:B 3.45588e-05
4 *39:40 *1004:B 6.2061e-05
5 *46:79 *1004:B 0.00011852
*RES
1 *1003:Y *1004:B 11.445 
*END

*D_NET *87 0.00103578
*CONN
*I *1001:A I *D sky130_fd_sc_hd__nand3_1
*I *1002:B1 I *D sky130_fd_sc_hd__a21o_1
*I *1006:Q O *D sky130_fd_sc_hd__dfrtp_1
*CAP
1 *1001:A 0.000193371
2 *1002:B1 0
3 *1006:Q 0.000132069
4 *87:12 0.00032544
5 *1001:A *1001:B 8.74566e-06
6 *1001:A *1002:A2 0.000157971
7 *1001:A *306:14 0
8 *1001:A *307:10 5.16348e-05
9 *87:12 *304:10 0
10 *87:12 *306:14 0.00011852
11 *85:10 *87:12 4.80285e-05
*RES
1 *1006:Q *87:12 8.12 
2 *87:12 *1002:B1 1.6 
3 *87:12 *1001:A 9.0125 
*END

*D_NET *88 0.000914518
*CONN
*I *1006:D I *D sky130_fd_sc_hd__dfrtp_1
*I *1005:X O *D sky130_fd_sc_hd__a21bo_1
*CAP
1 *1006:D 0.000308439
2 *1005:X 0.000308439
3 *1006:D *1006:RESET_B 1.95248e-05
4 *1006:D *297:165 0.000208396
5 *1006:D *297:171 6.97202e-05
*RES
1 *1005:X *1006:D 9.17 
*END

*D_NET *89 0.00315127
*CONN
*I *1012:A1 I *D sky130_fd_sc_hd__a21bo_1
*I *1011:A I *D sky130_fd_sc_hd__xnor2_1
*I *1007:Q O *D sky130_fd_sc_hd__dfrtp_1
*CAP
1 *1012:A1 0
2 *1011:A 0.000349353
3 *1007:Q 0.000781172
4 *89:10 0.00113053
5 *1011:A *1008:A 0
6 *1011:A *1010:B 5.4256e-05
7 *1011:A *1011:B 0.000124895
8 *1011:A *1014:D 7.00889e-06
9 *1011:A *1188:RESET_B 0
10 *1011:A *94:10 0
11 *89:10 *1007:RESET_B 0.000117787
12 *89:10 *1013:D 4.70343e-05
13 *89:10 *94:10 0
14 *89:10 *306:14 0
15 *1188:CLK *1011:A 5.53249e-06
16 *1188:CLK *89:10 0.000205376
17 *39:10 *89:10 0.000169582
18 *46:22 *89:10 0.000158746
*RES
1 *1007:Q *89:10 17.07 
2 *89:10 *1011:A 9.525 
3 *89:10 *1012:A1 3.6 
*END

*D_NET *90 0.000973785
*CONN
*I *1007:D I *D sky130_fd_sc_hd__dfrtp_1
*I *1004:Y O *D sky130_fd_sc_hd__xnor2_1
*CAP
1 *1007:D 0.000306422
2 *1004:Y 0.000306422
3 *1007:D *306:14 0
4 *1003:A *1007:D 0.000139245
5 *1005:A1 *1007:D 3.45679e-05
6 *39:10 *1007:D 0.000105841
7 *39:40 *1007:D 7.71016e-05
8 *46:12 *1007:D 0
9 *46:18 *1007:D 0
10 *46:22 *1007:D 4.18603e-06
11 *46:79 *1007:D 0
*RES
1 *1004:Y *1007:D 13.455 
*END

*D_NET *91 0.000561865
*CONN
*I *1012:B1_N I *D sky130_fd_sc_hd__a21bo_1
*I *1010:A I *D sky130_fd_sc_hd__nand2_1
*I *1008:Y O *D sky130_fd_sc_hd__nand3_1
*CAP
1 *1012:B1_N 4.03266e-05
2 *1010:A 4.27556e-05
3 *1008:Y 8.72194e-05
4 *91:8 0.000170302
5 *1010:A *1010:B 5.39961e-05
6 *1010:A *298:641 4.99619e-05
7 *1010:A *298:645 0
8 *1012:B1_N *1010:B 6.38291e-05
9 *1012:B1_N *298:645 0
10 *91:8 *298:632 2.11084e-05
11 *91:8 *298:641 3.23663e-05
*RES
1 *1008:Y *91:8 4.74 
2 *91:8 *1010:A 4.665 
3 *91:8 *1012:B1_N 4.47 
*END

*D_NET *92 0.000713614
*CONN
*I *1012:A2 I *D sky130_fd_sc_hd__a21bo_1
*I *1010:B I *D sky130_fd_sc_hd__nand2_1
*I *1009:X O *D sky130_fd_sc_hd__a21o_1
*CAP
1 *1012:A2 0
2 *1010:B 0.000182786
3 *1009:X 7.20044e-05
4 *92:6 0.00025479
5 *1010:B *1188:RESET_B 4.43871e-06
6 *1010:B *298:645 0
7 *1010:A *1010:B 5.39961e-05
8 *1011:A *1010:B 5.4256e-05
9 *1012:B1_N *1010:B 6.38291e-05
10 *1188:CLK *1010:B 2.75145e-05
*RES
1 *1009:X *92:6 2.74 
2 *92:6 *1010:B 9.08 
3 *92:6 *1012:A2 1.6 
*END

*D_NET *93 0.000598946
*CONN
*I *1011:B I *D sky130_fd_sc_hd__xnor2_1
*I *1010:Y O *D sky130_fd_sc_hd__nand2_1
*CAP
1 *1011:B 0.000204659
2 *1010:Y 0.000204659
3 *1011:B *1014:D 6.47326e-05
4 *1011:A *1011:B 0.000124895
*RES
1 *1010:Y *1011:B 11.1 
*END

*D_NET *94 0.00141368
*CONN
*I *1009:B1 I *D sky130_fd_sc_hd__a21o_1
*I *1008:A I *D sky130_fd_sc_hd__nand3_1
*I *1013:Q O *D sky130_fd_sc_hd__dfrtp_1
*CAP
1 *1009:B1 0
2 *1008:A 0.000116854
3 *1013:Q 0.00022593
4 *94:10 0.000342783
5 *1008:A *1008:B 0.000280485
6 *1008:A *1009:A2 0
7 *1008:A *298:632 0.000203178
8 *1008:A *306:14 5.53249e-06
9 *94:10 *1013:D 0.000165493
10 *94:10 *306:14 7.34286e-05
11 *1011:A *1008:A 0
12 *1011:A *94:10 0
13 *89:10 *94:10 0
*RES
1 *1013:Q *94:10 7.41 
2 *94:10 *1008:A 7.32 
3 *94:10 *1009:B1 3.6 
*END

*D_NET *95 0.00149937
*CONN
*I *1013:D I *D sky130_fd_sc_hd__dfrtp_1
*I *1012:X O *D sky130_fd_sc_hd__a21bo_1
*CAP
1 *1013:D 0.000543218
2 *1012:X 0.000543218
3 *1013:D *1063:D 9.66021e-05
4 *1013:D *306:14 0
5 *1013:CLK *1013:D 5.30673e-05
6 *39:10 *1013:D 5.07419e-05
7 *89:10 *1013:D 4.70343e-05
8 *94:10 *1013:D 0.000165493
*RES
1 *1012:X *1013:D 17.31 
*END

*D_NET *96 0.000943938
*CONN
*I *1018:A I *D sky130_fd_sc_hd__xnor2_1
*I *1019:A1 I *D sky130_fd_sc_hd__a21bo_1
*I *1014:Q O *D sky130_fd_sc_hd__dfrtp_1
*CAP
1 *1018:A 0
2 *1019:A1 0.000160167
3 *1014:Q 0.000266656
4 *96:12 0.000426823
5 *1019:A1 *1016:B1 3.64998e-06
6 *1019:A1 *1019:B1_N 5.30673e-05
7 *96:12 *1018:B 3.09164e-05
8 *96:12 *297:474 2.65814e-06
9 *96:12 *304:10 0
*RES
1 *1014:Q *96:12 9.065 
2 *96:12 *1019:A1 4.12 
3 *96:12 *1018:A 1.6 
*END

*D_NET *97 0.00129231
*CONN
*I *1014:D I *D sky130_fd_sc_hd__dfrtp_1
*I *1011:Y O *D sky130_fd_sc_hd__xnor2_1
*CAP
1 *1014:D 0.00057556
2 *1011:Y 0.00057556
3 *1014:D *1021:D 0
4 *1011:A *1014:D 7.00889e-06
5 *1011:B *1014:D 6.47326e-05
6 *1182:CLK *1014:D 6.9451e-05
*RES
1 *1011:Y *1014:D 15.21 
*END

*D_NET *98 0.0007268
*CONN
*I *1017:A I *D sky130_fd_sc_hd__nand2_1
*I *1019:B1_N I *D sky130_fd_sc_hd__a21bo_1
*I *1015:Y O *D sky130_fd_sc_hd__nand3_1
*CAP
1 *1017:A 6.12412e-05
2 *1019:B1_N 0.000105591
3 *1015:Y 9.59548e-05
4 *98:6 0.000262787
5 *1017:A *1018:B 7.00889e-06
6 *1019:B1_N *304:10 7.23533e-05
7 *98:6 *1015:C 4.82919e-05
8 *98:6 *1017:B 2.05056e-05
9 *1019:A1 *1019:B1_N 5.30673e-05
*RES
1 *1015:Y *98:6 2.74 
2 *98:6 *1019:B1_N 7.265 
3 *98:6 *1017:A 2.665 
*END

*D_NET *99 0.00105847
*CONN
*I *1017:B I *D sky130_fd_sc_hd__nand2_1
*I *1019:A2 I *D sky130_fd_sc_hd__a21bo_1
*I *1016:X O *D sky130_fd_sc_hd__a21o_1
*CAP
1 *1017:B 9.44737e-05
2 *1019:A2 0
3 *1016:X 0.000129531
4 *99:10 0.000224004
5 *1017:B *1015:C 4.82919e-05
6 *1017:B *1016:A1 0.000177568
7 *1017:B *304:10 0.00010052
8 *1017:B *305:10 9.50342e-06
9 *99:10 *1016:A1 0.000117825
10 *99:10 *1016:B1 7.06865e-05
11 *99:10 *297:474 3.94592e-05
12 *99:10 *304:10 2.60986e-05
13 *98:6 *1017:B 2.05056e-05
*RES
1 *1016:X *99:10 6.12 
2 *99:10 *1019:A2 3.6 
3 *99:10 *1017:B 6.54 
*END

*D_NET *100 0.000449953
*CONN
*I *1018:B I *D sky130_fd_sc_hd__xnor2_1
*I *1017:Y O *D sky130_fd_sc_hd__nand2_1
*CAP
1 *1018:B 0.000206014
2 *1017:Y 0.000206014
3 *1018:B *304:10 0
4 *1017:A *1018:B 7.00889e-06
5 *96:12 *1018:B 3.09164e-05
*RES
1 *1017:Y *1018:B 9.975 
*END

*D_NET *101 0.00124713
*CONN
*I *1016:B1 I *D sky130_fd_sc_hd__a21o_1
*I *1015:A I *D sky130_fd_sc_hd__nand3_1
*I *1020:Q O *D sky130_fd_sc_hd__dfrtp_1
*CAP
1 *1016:B1 0.000150115
2 *1015:A 5.78087e-05
3 *1020:Q 3.98087e-05
4 *101:6 0.000247733
5 *1015:A *1016:A1 0.000229217
6 *1015:A *298:600 0.000206824
7 *1015:A *298:615 3.09233e-05
8 *1016:B1 *1016:A1 4.03082e-05
9 *1016:B1 *1020:D 5.83121e-06
10 *1016:B1 *304:10 0.000139231
11 *101:6 *1020:D 2.49909e-05
12 *1019:A1 *1016:B1 3.64998e-06
13 *99:10 *1016:B1 7.06865e-05
*RES
1 *1020:Q *101:6 2.05 
2 *101:6 *1015:A 8.255 
3 *101:6 *1016:B1 8.375 
*END

*D_NET *102 0.000887763
*CONN
*I *1020:D I *D sky130_fd_sc_hd__dfrtp_1
*I *1019:X O *D sky130_fd_sc_hd__a21bo_1
*CAP
1 *1020:D 0.000428471
2 *1019:X 0.000428471
3 *1016:B1 *1020:D 5.83121e-06
4 *101:6 *1020:D 2.49909e-05
*RES
1 *1019:X *1020:D 9.17 
*END

*D_NET *103 0.00162752
*CONN
*I *1025:A I *D sky130_fd_sc_hd__xnor2_1
*I *1026:A1 I *D sky130_fd_sc_hd__a21bo_1
*I *1021:Q O *D sky130_fd_sc_hd__dfrtp_1
*CAP
1 *1025:A 0.000342865
2 *1026:A1 8.74676e-05
3 *1021:Q 0.000135474
4 *103:10 0.000565807
5 *1025:A *108:8 2.75229e-05
6 *1025:A *297:450 0.000172328
7 *1026:A1 *1023:A1 0.00011852
8 *1026:A1 *1027:D 0
9 *1026:A1 *105:12 0
10 *1026:A1 *303:10 0
11 *1026:A1 *303:14 0
12 *103:10 *1022:A 2.67275e-05
13 *103:10 *1022:B 1.08758e-05
14 *103:10 *1023:A1 0.000139933
15 *103:10 *303:10 0
*RES
1 *1021:Q *103:10 6.03 
2 *103:10 *1026:A1 5.49 
3 *103:10 *1025:A 9.345 
*END

*D_NET *104 0.00112213
*CONN
*I *1021:D I *D sky130_fd_sc_hd__dfrtp_1
*I *1018:Y O *D sky130_fd_sc_hd__xnor2_1
*CAP
1 *1021:D 0.000561066
2 *1018:Y 0.000561066
3 *1014:D *1021:D 0
4 *44:74 *1021:D 0
*RES
1 *1018:Y *1021:D 15.78 
*END

*D_NET *105 0.00161826
*CONN
*I *1024:A I *D sky130_fd_sc_hd__nand2_1
*I *1026:B1_N I *D sky130_fd_sc_hd__a21bo_1
*I *1022:Y O *D sky130_fd_sc_hd__nand3_1
*CAP
1 *1024:A 0.000167568
2 *1026:B1_N 0
3 *1022:Y 0.00027725
4 *105:12 0.000444818
5 *1024:A *1023:A1 2.49909e-05
6 *1024:A *1023:A2 4.82863e-05
7 *1024:A *1024:B 3.54536e-05
8 *1024:A *1025:B 2.75145e-05
9 *1024:A *1026:A2 0.000113809
10 *1024:A *1175:RESET_B 3.64998e-06
11 *105:12 *1022:A 0.000198939
12 *105:12 *1023:A1 0.000163821
13 *105:12 *1023:B1 0
14 *105:12 *297:450 3.17398e-05
15 *105:12 *297:461 5.80804e-05
16 *105:12 *297:474 2.23407e-05
17 *105:12 *304:10 0
18 *1026:A1 *105:12 0
*RES
1 *1022:Y *105:12 11.87 
2 *105:12 *1026:B1_N 1.6 
3 *105:12 *1024:A 5.17 
*END

*D_NET *106 0.000888058
*CONN
*I *1024:B I *D sky130_fd_sc_hd__nand2_1
*I *1026:A2 I *D sky130_fd_sc_hd__a21bo_1
*I *1023:X O *D sky130_fd_sc_hd__a21o_1
*CAP
1 *1024:B 3.76354e-05
2 *1026:A2 0.000226852
3 *1023:X 0
4 *106:4 0.000264488
5 *1026:A2 *1023:A1 4.82919e-05
6 *1026:A2 *1023:A2 0.000161529
7 *1024:A *1024:B 3.54536e-05
8 *1024:A *1026:A2 0.000113809
*RES
1 *1023:X *106:4 1.6 
2 *106:4 *1026:A2 5.86 
3 *106:4 *1024:B 2.41 
*END

*D_NET *107 0.000397266
*CONN
*I *1025:B I *D sky130_fd_sc_hd__xnor2_1
*I *1024:Y O *D sky130_fd_sc_hd__nand2_1
*CAP
1 *1025:B 0.000131135
2 *1024:Y 0.000131135
3 *1025:B *1023:B1 9.3062e-06
4 *1025:B *1028:D 0
5 *1025:B *1175:RESET_B 4.40325e-06
6 *1025:B *297:450 9.37731e-05
7 *1024:A *1025:B 2.75145e-05
8 *44:10 *1025:B 0
*RES
1 *1024:Y *1025:B 9.375 
*END

*D_NET *108 0.00165418
*CONN
*I *1022:A I *D sky130_fd_sc_hd__nand3_1
*I *1023:B1 I *D sky130_fd_sc_hd__a21o_1
*I *1027:Q O *D sky130_fd_sc_hd__dfrtp_1
*CAP
1 *1022:A 0.000353957
2 *1023:B1 0.000243654
3 *1027:Q 3.58834e-05
4 *108:8 0.000633495
5 *1022:A *1022:B 3.95724e-05
6 *1022:A *297:461 0
7 *1022:A *297:474 0
8 *1023:B1 *1023:A1 1.91902e-05
9 *1023:B1 *297:450 6.5928e-05
10 *1023:B1 *297:461 0
11 *1025:A *108:8 2.75229e-05
12 *1025:B *1023:B1 9.3062e-06
13 *103:10 *1022:A 2.67275e-05
14 *105:12 *1022:A 0.000198939
15 *105:12 *1023:B1 0
*RES
1 *1027:Q *108:8 4.05 
2 *108:8 *1023:B1 7.755 
3 *108:8 *1022:A 9.84 
*END

*D_NET *109 0.000257541
*CONN
*I *1027:D I *D sky130_fd_sc_hd__dfrtp_1
*I *1026:X O *D sky130_fd_sc_hd__a21bo_1
*CAP
1 *1027:D 0.00012877
2 *1026:X 0.00012877
3 *1027:D *303:10 0
4 *1026:A1 *1027:D 0
*RES
1 *1026:X *1027:D 9.03 
*END

*D_NET *110 0.00116407
*CONN
*I *1032:A I *D sky130_fd_sc_hd__xnor2_1
*I *1033:A1 I *D sky130_fd_sc_hd__a21bo_1
*I *1028:Q O *D sky130_fd_sc_hd__dfrtp_1
*CAP
1 *1032:A 0
2 *1033:A1 0.000199781
3 *1028:Q 0.000170395
4 *110:12 0.000370176
5 *1033:A1 *1028:RESET_B 0
6 *1033:A1 *1029:B 9.37731e-05
7 *1033:A1 *1029:C 7.63125e-05
8 *1033:A1 *1032:B 0
9 *1033:A1 *112:10 0.000117832
10 *1033:A1 *113:12 0
11 *110:12 *1028:RESET_B 0
12 *110:12 *1029:C 2.86623e-05
13 *110:12 *1035:D 7.00889e-06
14 *110:12 *298:365 4.80285e-05
15 *110:12 *298:376 5.21046e-05
*RES
1 *1028:Q *110:12 8.72 
2 *110:12 *1033:A1 9.53 
3 *110:12 *1032:A 1.6 
*END

*D_NET *111 0.00046472
*CONN
*I *1028:D I *D sky130_fd_sc_hd__dfrtp_1
*I *1025:Y O *D sky130_fd_sc_hd__xnor2_1
*CAP
1 *1028:D 0.000173038
2 *1025:Y 0.000173038
3 *1028:D *297:400 0
4 *1028:D *297:450 0
5 *1025:B *1028:D 0
6 *44:10 *1028:D 6.5265e-05
7 *44:16 *1028:D 5.33787e-05
*RES
1 *1025:Y *1028:D 10.62 
*END

*D_NET *112 0.000858817
*CONN
*I *1033:B1_N I *D sky130_fd_sc_hd__a21bo_1
*I *1031:A I *D sky130_fd_sc_hd__nand2_1
*I *1029:Y O *D sky130_fd_sc_hd__nand3_1
*CAP
1 *1033:B1_N 7.37998e-05
2 *1031:A 0.000163614
3 *1029:Y 6.9843e-05
4 *112:10 0.000307257
5 *1031:A *1032:B 4.82919e-05
6 *1031:A *1033:A2 7.81792e-05
7 *1033:A1 *112:10 0.000117832
*RES
1 *1029:Y *112:10 6.98 
2 *112:10 *1031:A 4.75 
3 *112:10 *1033:B1_N 2.74 
*END

*D_NET *113 0.00124307
*CONN
*I *1033:A2 I *D sky130_fd_sc_hd__a21bo_1
*I *1031:B I *D sky130_fd_sc_hd__nand2_1
*I *1030:X O *D sky130_fd_sc_hd__a21o_1
*CAP
1 *1033:A2 9.29632e-05
2 *1031:B 1.52848e-05
3 *1030:X 0.000250366
4 *113:12 0.000358614
5 *1031:B *1032:B 4.9253e-06
6 *1031:B *1034:D 2.30292e-05
7 *1033:A2 *1032:B 9.27255e-06
8 *1033:A2 *1034:D 0.00012657
9 *113:12 *1030:B1 3.86607e-05
10 *113:12 *1032:B 0.000245206
11 *113:12 *1035:RESET_B 0
12 *1031:A *1033:A2 7.81792e-05
13 *1033:A1 *113:12 0
*RES
1 *1030:X *113:12 9.725 
2 *113:12 *1031:B 2.05 
3 *113:12 *1033:A2 4.15 
*END

*D_NET *114 0.00104967
*CONN
*I *1032:B I *D sky130_fd_sc_hd__xnor2_1
*I *1031:Y O *D sky130_fd_sc_hd__nand2_1
*CAP
1 *1032:B 0.000246923
2 *1031:Y 0.000246923
3 *1032:B *1029:B 0.000105841
4 *1032:B *1029:C 0
5 *1032:B *1030:B1 1.73877e-05
6 *1032:B *298:365 0.0001249
7 *1032:B *303:14 0
8 *1031:A *1032:B 4.82919e-05
9 *1031:B *1032:B 4.9253e-06
10 *1033:A1 *1032:B 0
11 *1033:A2 *1032:B 9.27255e-06
12 *113:12 *1032:B 0.000245206
*RES
1 *1031:Y *1032:B 12.81 
*END

*D_NET *115 0.000744748
*CONN
*I *1029:A I *D sky130_fd_sc_hd__nand3_1
*I *1030:B1 I *D sky130_fd_sc_hd__a21o_1
*I *1034:Q O *D sky130_fd_sc_hd__dfrtp_1
*CAP
1 *1029:A 4.20354e-05
2 *1030:B1 0.000224008
3 *1034:Q 0
4 *115:4 0.000266043
5 *1029:A *1029:B 2.55763e-05
6 *1029:A *1035:RESET_B 4.99619e-05
7 *1030:B1 *1035:RESET_B 7.25441e-05
8 *1030:B1 *303:14 8.53113e-06
9 *1032:B *1030:B1 1.73877e-05
10 *113:12 *1030:B1 3.86607e-05
*RES
1 *1034:Q *115:4 1.6 
2 *115:4 *1030:B1 8.81 
3 *115:4 *1029:A 2.665 
*END

*D_NET *116 0.00138125
*CONN
*I *1034:D I *D sky130_fd_sc_hd__dfrtp_1
*I *1033:X O *D sky130_fd_sc_hd__a21bo_1
*CAP
1 *1034:D 0.000615825
2 *1033:X 0.000615825
3 *1034:D *1035:RESET_B 0
4 *1034:D *1037:A1 0
5 *1034:D *1038:A 0
6 *1034:D *1039:B 0
7 *1031:B *1034:D 2.30292e-05
8 *1033:A2 *1034:D 0.00012657
*RES
1 *1033:X *1034:D 15.135 
*END

*D_NET *117 0.00298957
*CONN
*I *1040:A1 I *D sky130_fd_sc_hd__a21bo_1
*I *1039:A I *D sky130_fd_sc_hd__xnor2_1
*I *1035:Q O *D sky130_fd_sc_hd__dfrtp_1
*CAP
1 *1040:A1 1.89937e-05
2 *1039:A 0.000219108
3 *1035:Q 0.00080108
4 *117:14 0.00103918
5 *1039:A *1034:RESET_B 4.41506e-05
6 *1039:A *1036:A 4.5783e-05
7 *1039:A *1037:B1 3.57846e-05
8 *1039:A *1039:B 5.83121e-06
9 *1039:A *1040:A2 3.09233e-05
10 *1039:A *302:18 0
11 *117:14 *1034:RESET_B 0.000185253
12 *117:14 *1035:RESET_B 0.000563482
*RES
1 *1035:Q *117:14 13.675 
2 *117:14 *1039:A 9.35 
3 *117:14 *1040:A1 1.96 
*END

*D_NET *118 0.00119134
*CONN
*I *1035:D I *D sky130_fd_sc_hd__dfrtp_1
*I *1032:Y O *D sky130_fd_sc_hd__xnor2_1
*CAP
1 *1035:D 0.000592164
2 *1032:Y 0.000592164
3 *44:18 *1035:D 0
4 *110:12 *1035:D 7.00889e-06
*RES
1 *1032:Y *1035:D 13.95 
*END

*D_NET *119 0.000894284
*CONN
*I *1040:B1_N I *D sky130_fd_sc_hd__a21bo_1
*I *1038:A I *D sky130_fd_sc_hd__nand2_1
*I *1036:Y O *D sky130_fd_sc_hd__nand3_1
*CAP
1 *1040:B1_N 0
2 *1038:A 0.000112536
3 *1036:Y 8.91236e-05
4 *119:10 0.00020166
5 *1038:A *1037:A1 7.21296e-06
6 *1038:A *1037:A2 0.000124768
7 *1038:A *1039:B 0.00018471
8 *119:10 *1037:A2 3.31204e-05
9 *119:10 *1039:B 7.23533e-05
10 *119:10 *298:354 4.82863e-05
11 *119:10 *302:18 2.0514e-05
12 *1034:D *1038:A 0
*RES
1 *1036:Y *119:10 5.265 
2 *119:10 *1038:A 6.51 
3 *119:10 *1040:B1_N 3.6 
*END

*D_NET *120 0.000834405
*CONN
*I *1038:B I *D sky130_fd_sc_hd__nand2_1
*I *1040:A2 I *D sky130_fd_sc_hd__a21bo_1
*I *1037:X O *D sky130_fd_sc_hd__a21o_1
*CAP
1 *1038:B 0.000127458
2 *1040:A2 0.000183283
3 *1037:X 0
4 *120:4 0.000310741
5 *1038:B *1037:A2 0
6 *1040:A2 *1037:A2 6.58339e-05
7 *1040:A2 *1037:B1 0.000116165
8 *1039:A *1040:A2 3.09233e-05
*RES
1 *1037:X *120:4 1.6 
2 *120:4 *1040:A2 8.465 
3 *120:4 *1038:B 3.715 
*END

*D_NET *121 0.00111137
*CONN
*I *1039:B I *D sky130_fd_sc_hd__xnor2_1
*I *1038:Y O *D sky130_fd_sc_hd__nand2_1
*CAP
1 *1039:B 0.000283379
2 *1038:Y 0.000283379
3 *1039:B *1035:RESET_B 0
4 *1039:B *1037:A2 5.12017e-06
5 *1039:B *298:326 1.08194e-05
6 *1039:B *298:345 9.82856e-06
7 *1039:B *302:18 0.000158066
8 *1034:CLK *1039:B 9.78798e-05
9 *1034:D *1039:B 0
10 *1038:A *1039:B 0.00018471
11 *1039:A *1039:B 5.83121e-06
12 *119:10 *1039:B 7.23533e-05
*RES
1 *1038:Y *1039:B 13.395 
*END

*D_NET *122 0.00139378
*CONN
*I *1036:A I *D sky130_fd_sc_hd__nand3_1
*I *1037:B1 I *D sky130_fd_sc_hd__a21o_1
*I *1041:Q O *D sky130_fd_sc_hd__dfrtp_1
*CAP
1 *1036:A 4.61315e-05
2 *1037:B1 0.000138914
3 *1041:Q 0.000139302
4 *122:8 0.000324348
5 *1036:A *1037:A1 9.54399e-05
6 *1036:A *1037:A2 6.71803e-06
7 *1036:A *298:326 6.71803e-06
8 *1037:B1 *1037:A1 0.000271053
9 *1037:B1 *1037:A2 4.66108e-05
10 *122:8 *1034:RESET_B 0.000120815
11 *1039:A *1036:A 4.5783e-05
12 *1039:A *1037:B1 3.57846e-05
13 *1040:A2 *1037:B1 0.000116165
*RES
1 *1041:Q *122:8 5.43 
2 *122:8 *1037:B1 6.96 
3 *122:8 *1036:A 4.98 
*END

*D_NET *123 0.00100054
*CONN
*I *1041:D I *D sky130_fd_sc_hd__dfrtp_1
*I *1040:X O *D sky130_fd_sc_hd__a21bo_1
*CAP
1 *1041:D 0.000288438
2 *1040:X 0.000288438
3 *1041:D *1034:RESET_B 0.00030664
4 *1041:D *1041:RESET_B 1.86534e-05
5 *1041:D *1140:D 5.83121e-06
6 *1041:D *297:357 9.25387e-05
*RES
1 *1040:X *1041:D 9.515 
*END

*D_NET *124 0.0015609
*CONN
*I *1053:A I *D sky130_fd_sc_hd__xnor2_1
*I *1054:A1 I *D sky130_fd_sc_hd__a21bo_1
*I *1042:Q O *D sky130_fd_sc_hd__dfrtp_1
*CAP
1 *1053:A 0.000230262
2 *1054:A1 0
3 *1042:Q 0.000493287
4 *124:10 0.00072355
5 *1053:A *1053:B 0
6 *1053:A *136:12 0
7 *124:10 *1042:D 1.16646e-05
8 *124:10 *1055:D 0.000102133
9 *124:10 *136:12 0
10 *124:10 *298:326 0
11 *124:10 *298:547 0
12 *1133:CLK *124:10 0
13 *41:10 *124:10 0
14 *41:38 *124:10 0
15 *41:56 *1053:A 0
*RES
1 *1042:Q *124:10 11.895 
2 *124:10 *1054:A1 3.6 
3 *124:10 *1053:A 7.14 
*END

*D_NET *125 0.00132598
*CONN
*I *1042:D I *D sky130_fd_sc_hd__dfrtp_1
*I *1039:Y O *D sky130_fd_sc_hd__xnor2_1
*CAP
1 *1042:D 0.00061295
2 *1039:Y 0.00061295
3 *40:31 *1042:D 7.06594e-05
4 *40:33 *1042:D 1.77595e-05
5 *124:10 *1042:D 1.16646e-05
*RES
1 *1039:Y *1042:D 10.22 
*END

*D_NET *126 0.000948855
*CONN
*I *1047:B1_N I *D sky130_fd_sc_hd__a21bo_1
*I *1045:A I *D sky130_fd_sc_hd__nand2_1
*I *1043:Y O *D sky130_fd_sc_hd__nand3_1
*CAP
1 *1047:B1_N 0
2 *1045:A 0.000157081
3 *1043:Y 8.13392e-05
4 *126:6 0.00023842
5 *1045:A *285:14 0.000233925
6 *1045:A *298:148 4.44927e-05
7 *1045:A *298:154 0.000187766
8 *126:6 *1043:A 5.83121e-06
*RES
1 *1043:Y *126:6 2.395 
2 *126:6 *1045:A 9.755 
3 *126:6 *1047:B1_N 1.6 
*END

*D_NET *127 0.000836137
*CONN
*I *1047:A2 I *D sky130_fd_sc_hd__a21bo_1
*I *1045:B I *D sky130_fd_sc_hd__nand2_1
*I *1044:X O *D sky130_fd_sc_hd__a21o_1
*CAP
1 *1047:A2 0
2 *1045:B 0.000102928
3 *1044:X 0.000234174
4 *127:10 0.000337102
5 *1045:B *283:10 0
6 *1045:B *285:14 0
7 *127:10 *1044:B1 2.66935e-05
8 *127:10 *283:10 0
9 *127:10 *285:14 0
10 *127:10 *288:10 2.75229e-05
11 *1047:A1 *1045:B 0.000107716
*RES
1 *1044:X *127:10 7.47 
2 *127:10 *1045:B 6 
3 *127:10 *1047:A2 3.6 
*END

*D_NET *128 0.000269351
*CONN
*I *1046:B I *D sky130_fd_sc_hd__xnor2_1
*I *1045:Y O *D sky130_fd_sc_hd__nand2_1
*CAP
1 *1046:B 7.07633e-05
2 *1045:Y 7.07633e-05
3 *1046:B *283:10 0
4 *1046:B *285:14 9.29751e-06
5 *1047:A1 *1046:B 0.000118527
*RES
1 *1045:Y *1046:B 8.835 
*END

*D_NET *129 0.00138349
*CONN
*I *1043:A I *D sky130_fd_sc_hd__nand3_1
*I *1044:B1 I *D sky130_fd_sc_hd__a21o_1
*I *1048:Q O *D sky130_fd_sc_hd__dfrtp_1
*CAP
1 *1043:A 0.00010187
2 *1044:B1 0.000211068
3 *1048:Q 4.36824e-05
4 *129:6 0.00035662
5 *1043:A *1043:B 2.75229e-05
6 *1043:A *284:10 0.000229897
7 *1043:A *298:148 0.000231557
8 *1043:A *298:154 9.50342e-06
9 *1044:B1 *283:10 0
10 *1044:B1 *285:14 0.000139245
11 *126:6 *1043:A 5.83121e-06
12 *127:10 *1044:B1 2.66935e-05
*RES
1 *1048:Q *129:6 2.05 
2 *129:6 *1044:B1 8.72 
3 *129:6 *1043:A 9.05 
*END

*D_NET *130 0.000643385
*CONN
*I *1048:D I *D sky130_fd_sc_hd__dfrtp_1
*I *1047:X O *D sky130_fd_sc_hd__a21bo_1
*CAP
1 *1048:D 0.000249495
2 *1047:X 0.000249495
3 *1048:D *280:12 9.30787e-05
4 *1048:D *281:12 5.13155e-05
*RES
1 *1047:X *1048:D 10.5 
*END

*D_NET *131 0.0021809
*CONN
*I *1123:A I *D sky130_fd_sc_hd__xnor2_1
*I *1124:A1 I *D sky130_fd_sc_hd__a21bo_1
*I *1049:Q O *D sky130_fd_sc_hd__dfrtp_1
*CAP
1 *1123:A 0
2 *1124:A1 0.000298275
3 *1049:Q 0.000611416
4 *131:12 0.000909691
5 *1124:A1 *1124:A2 8.49205e-05
6 *1124:A1 *204:12 0.000108886
7 *131:12 *206:12 0
8 *131:12 *283:10 0
9 *131:12 *284:10 0
10 *131:12 *285:14 0.000167709
11 *131:12 *298:154 0
*RES
1 *1049:Q *131:12 14.27 
2 *131:12 *1124:A1 6.31 
3 *131:12 *1123:A 1.6 
*END

*D_NET *132 0.000443173
*CONN
*I *1049:D I *D sky130_fd_sc_hd__dfrtp_1
*I *1046:Y O *D sky130_fd_sc_hd__xnor2_1
*CAP
1 *1049:D 0.000148779
2 *1046:Y 0.000148779
3 *1049:D *1049:RESET_B 9.2741e-05
4 *1049:D *283:10 4.7043e-05
5 *1049:D *285:14 0
6 *1049:D *297:645 5.83121e-06
*RES
1 *1046:Y *1049:D 10.065 
*END

*D_NET *133 0.00128818
*CONN
*I *1054:B1_N I *D sky130_fd_sc_hd__a21bo_1
*I *1052:A I *D sky130_fd_sc_hd__nand2_1
*I *1050:Y O *D sky130_fd_sc_hd__nand3_1
*CAP
1 *1054:B1_N 0
2 *1052:A 0.000171165
3 *1050:Y 0.000265963
4 *133:8 0.000437128
5 *1052:A *1052:B 8.1512e-05
6 *1052:A *134:6 0.000111285
7 *133:8 *1050:A 9.80032e-06
8 *133:8 *1051:A1 8.8266e-05
9 *133:8 *1051:A2 2.0514e-05
10 *133:8 *134:6 9.80032e-06
11 *133:8 *136:12 9.27495e-05
*RES
1 *1050:Y *133:8 5.17 
2 *133:8 *1052:A 4.825 
3 *133:8 *1054:B1_N 1.6 
*END

*D_NET *134 0.00079753
*CONN
*I *1054:A2 I *D sky130_fd_sc_hd__a21bo_1
*I *1052:B I *D sky130_fd_sc_hd__nand2_1
*I *1051:X O *D sky130_fd_sc_hd__a21o_1
*CAP
1 *1054:A2 0
2 *1052:B 0.000102945
3 *1051:X 0.000137042
4 *134:6 0.000239987
5 *1052:B *1053:B 3.00381e-05
6 *134:6 *136:12 8.49205e-05
7 *1052:A *1052:B 8.1512e-05
8 *1052:A *134:6 0.000111285
9 *133:8 *134:6 9.80032e-06
*RES
1 *1051:X *134:6 4.465 
2 *134:6 *1052:B 3.79 
3 *134:6 *1054:A2 1.6 
*END

*D_NET *135 0.00026977
*CONN
*I *1053:B I *D sky130_fd_sc_hd__xnor2_1
*I *1052:Y O *D sky130_fd_sc_hd__nand2_1
*CAP
1 *1053:B 0.000119866
2 *1052:Y 0.000119866
3 *1052:B *1053:B 3.00381e-05
4 *1053:A *1053:B 0
5 *40:16 *1053:B 0
*RES
1 *1052:Y *1053:B 9.03 
*END

*D_NET *136 0.00113883
*CONN
*I *1050:A I *D sky130_fd_sc_hd__nand3_1
*I *1051:B1 I *D sky130_fd_sc_hd__a21o_1
*I *1055:Q O *D sky130_fd_sc_hd__dfrtp_1
*CAP
1 *1050:A 7.54157e-05
2 *1051:B1 0
3 *1055:Q 0.000221677
4 *136:12 0.000297093
5 *1050:A *1051:A1 3.25635e-05
6 *1050:A *1051:A2 8.65961e-05
7 *1050:A *298:572 8.8266e-05
8 *1053:A *136:12 0
9 *41:38 *136:12 6.55364e-05
10 *41:56 *136:12 8.42161e-05
11 *124:10 *136:12 0
12 *133:8 *1050:A 9.80032e-06
13 *133:8 *136:12 9.27495e-05
14 *134:6 *136:12 8.49205e-05
*RES
1 *1055:Q *136:12 10.505 
2 *136:12 *1051:B1 1.6 
3 *136:12 *1050:A 3.805 
*END

*D_NET *137 0.00102175
*CONN
*I *1055:D I *D sky130_fd_sc_hd__dfrtp_1
*I *1054:X O *D sky130_fd_sc_hd__a21bo_1
*CAP
1 *1055:D 0.000365454
2 *1054:X 0.000365454
3 *1055:CLK *1055:D 0.000161186
4 *41:14 *1055:D 2.75229e-05
5 *124:10 *1055:D 0.000102133
*RES
1 *1054:X *1055:D 13.0238 
*END

*D_NET *138 0.00218993
*CONN
*I *1060:A I *D sky130_fd_sc_hd__xnor2_1
*I *1061:A1 I *D sky130_fd_sc_hd__a21bo_1
*I *1056:Q O *D sky130_fd_sc_hd__dfrtp_1
*CAP
1 *1060:A 8.2202e-05
2 *1061:A1 7.77117e-06
3 *1056:Q 0.000340104
4 *138:12 0.000430077
5 *1060:A *1057:A 0
6 *1060:A *1060:B 0.000120186
7 *1060:A *140:12 0
8 *1060:A *141:12 6.36578e-05
9 *1060:A *143:8 0
10 *1060:A *293:18 4.92206e-05
11 *1061:A1 *1059:B 4.82863e-05
12 *1061:A1 *140:12 4.99619e-05
13 *138:12 *1020:RESET_B 0.000163992
14 *138:12 *1059:A 0.000122331
15 *138:12 *1059:B 0.00023301
16 *138:12 *140:12 0.000112349
17 *138:12 *302:18 0.000366779
18 *138:12 *303:10 0
*RES
1 *1056:Q *138:12 15.275 
2 *138:12 *1061:A1 2.05 
3 *138:12 *1060:A 8 
*END

*D_NET *139 0.00043927
*CONN
*I *1056:D I *D sky130_fd_sc_hd__dfrtp_1
*I *1053:Y O *D sky130_fd_sc_hd__xnor2_1
*CAP
1 *1056:D 0.000193587
2 *1053:Y 0.000193587
3 *41:56 *1056:D 5.20968e-05
*RES
1 *1053:Y *1056:D 9.81 
*END

*D_NET *140 0.00162787
*CONN
*I *1059:A I *D sky130_fd_sc_hd__nand2_1
*I *1061:B1_N I *D sky130_fd_sc_hd__a21bo_1
*I *1057:Y O *D sky130_fd_sc_hd__nand3_1
*CAP
1 *1059:A 0.00011692
2 *1061:B1_N 0
3 *1057:Y 0.00036704
4 *140:12 0.000483959
5 *1059:A *1059:B 5.01364e-05
6 *140:12 *1057:A 0.000108322
7 *140:12 *1058:A2 0
8 *140:12 *1059:B 2.30292e-05
9 *140:12 *1062:D 5.05521e-05
10 *140:12 *141:12 0
11 *140:12 *143:8 0.000143266
12 *140:12 *293:18 0
13 *1060:A *140:12 0
14 *1061:A1 *140:12 4.99619e-05
15 *138:12 *1059:A 0.000122331
16 *138:12 *140:12 0.000112349
*RES
1 *1057:Y *140:12 12.74 
2 *140:12 *1061:B1_N 1.6 
3 *140:12 *1059:A 3.79 
*END

*D_NET *141 0.00116344
*CONN
*I *1059:B I *D sky130_fd_sc_hd__nand2_1
*I *1061:A2 I *D sky130_fd_sc_hd__a21bo_1
*I *1058:X O *D sky130_fd_sc_hd__a21o_1
*CAP
1 *1059:B 0.00016758
2 *1061:A2 0
3 *1058:X 9.62472e-05
4 *141:12 0.000263827
5 *1059:B *1060:B 0.00018352
6 *141:12 *1058:A1 5.35969e-06
7 *141:12 *143:8 2.87867e-05
8 *1059:A *1059:B 5.01364e-05
9 *1060:A *141:12 6.36578e-05
10 *1061:A1 *1059:B 4.82863e-05
11 *138:12 *1059:B 0.00023301
12 *140:12 *1059:B 2.30292e-05
13 *140:12 *141:12 0
*RES
1 *1058:X *141:12 7.43 
2 *141:12 *1061:A2 1.6 
3 *141:12 *1059:B 6.205 
*END

*D_NET *142 0.000913297
*CONN
*I *1060:B I *D sky130_fd_sc_hd__xnor2_1
*I *1059:Y O *D sky130_fd_sc_hd__nand2_1
*CAP
1 *1060:B 0.000245535
2 *1059:Y 0.000245535
3 *1060:B *293:18 0.00011852
4 *1059:B *1060:B 0.00018352
5 *1060:A *1060:B 0.000120186
*RES
1 *1059:Y *1060:B 11.445 
*END

*D_NET *143 0.000670857
*CONN
*I *1057:A I *D sky130_fd_sc_hd__nand3_1
*I *1058:B1 I *D sky130_fd_sc_hd__a21o_1
*I *1062:Q O *D sky130_fd_sc_hd__dfrtp_1
*CAP
1 *1057:A 0.000118657
2 *1058:B1 0
3 *1062:Q 5.24413e-05
4 *143:8 0.000171098
5 *1057:A *1057:B 4.82863e-05
6 *1057:A *1058:A1 0
7 *1057:A *1058:A2 0
8 *1057:A *293:18 0
9 *1060:A *1057:A 0
10 *1060:A *143:8 0
11 *140:12 *1057:A 0.000108322
12 *140:12 *143:8 0.000143266
13 *141:12 *143:8 2.87867e-05
*RES
1 *1062:Q *143:8 5.235 
2 *143:8 *1058:B1 3.6 
3 *143:8 *1057:A 5.94 
*END

*D_NET *144 0.000866145
*CONN
*I *1062:D I *D sky130_fd_sc_hd__dfrtp_1
*I *1061:X O *D sky130_fd_sc_hd__a21bo_1
*CAP
1 *1062:D 0.000350402
2 *1061:X 0.000350402
3 *1062:D *1062:RESET_B 0.000114789
4 *140:12 *1062:D 5.05521e-05
*RES
1 *1061:X *1062:D 9.17 
*END

*D_NET *145 0.000846495
*CONN
*I *1067:A I *D sky130_fd_sc_hd__xnor2_1
*I *1068:A1 I *D sky130_fd_sc_hd__a21bo_1
*I *1063:Q O *D sky130_fd_sc_hd__dfrtp_1
*CAP
1 *1067:A 0.00010038
2 *1068:A1 7.76484e-05
3 *1063:Q 0.000191068
4 *145:6 0.000369097
5 *1067:A *1065:B1 2.24423e-05
6 *1067:A *1068:A2 0
7 *1067:A *1068:B1_N 6.47516e-05
8 *1067:A *282:14 0
9 *1067:A *298:802 0
10 *145:6 *1068:B1_N 2.11084e-05
*RES
1 *1063:Q *145:6 4.465 
2 *145:6 *1068:A1 2.74 
3 *145:6 *1067:A 7.745 
*END

*D_NET *146 0.00189377
*CONN
*I *1063:D I *D sky130_fd_sc_hd__dfrtp_1
*I *1060:Y O *D sky130_fd_sc_hd__xnor2_1
*CAP
1 *1063:D 0.000548865
2 *1060:Y 0.000548865
3 *1063:D *1013:RESET_B 0.000120186
4 *1063:D *297:181 0.000201335
5 *1063:D *302:10 0
6 *1063:D *302:18 0
7 *1063:D *303:10 4.92284e-05
8 *1013:CLK *1063:D 0.000209579
9 *1013:D *1063:D 9.66021e-05
10 *1063:CLK *1063:D 0.000119105
*RES
1 *1060:Y *1063:D 17.97 
*END

*D_NET *147 0.000947377
*CONN
*I *1066:A I *D sky130_fd_sc_hd__nand2_1
*I *1068:B1_N I *D sky130_fd_sc_hd__a21bo_1
*I *1064:Y O *D sky130_fd_sc_hd__nand3_1
*CAP
1 *1066:A 5.3827e-05
2 *1068:B1_N 9.61317e-05
3 *1064:Y 0.000101165
4 *147:8 0.000251124
5 *1066:A *1065:B1 0
6 *1066:A *1067:B 6.45236e-05
7 *1066:A *282:14 7.34364e-05
8 *1068:B1_N *1065:B1 0
9 *1068:B1_N *1067:B 5.56629e-05
10 *1068:B1_N *282:14 0.00010131
11 *147:8 *1064:A 8.22234e-06
12 *147:8 *1070:D 4.66108e-05
13 *951:A *1066:A 9.50342e-06
14 *1067:A *1068:B1_N 6.47516e-05
15 *145:6 *1068:B1_N 2.11084e-05
*RES
1 *1064:Y *147:8 4.74 
2 *147:8 *1068:B1_N 6.195 
3 *147:8 *1066:A 5.235 
*END

*D_NET *148 0.000972588
*CONN
*I *1066:B I *D sky130_fd_sc_hd__nand2_1
*I *1068:A2 I *D sky130_fd_sc_hd__a21bo_1
*I *1065:X O *D sky130_fd_sc_hd__a21o_1
*CAP
1 *1066:B 6.41787e-05
2 *1068:A2 0.000204418
3 *1065:X 0
4 *148:4 0.000268597
5 *1066:B *1064:C 4.99619e-05
6 *1066:B *1065:A2 0
7 *1068:A2 *1064:C 3.24055e-05
8 *1068:A2 *1065:B1 0.000186092
9 *1068:A2 *298:802 0.000166935
10 *1067:A *1068:A2 0
*RES
1 *1065:X *148:4 1.6 
2 *148:4 *1068:A2 10.16 
3 *148:4 *1066:B 2.92 
*END

*D_NET *149 0.000235809
*CONN
*I *1067:B I *D sky130_fd_sc_hd__xnor2_1
*I *1066:Y O *D sky130_fd_sc_hd__nand2_1
*CAP
1 *1067:B 5.7811e-05
2 *1066:Y 5.7811e-05
3 *1067:B *1065:B1 0
4 *1066:A *1067:B 6.45236e-05
5 *1068:B1_N *1067:B 5.56629e-05
*RES
1 *1066:Y *1067:B 8.58 
*END

*D_NET *150 0.00124349
*CONN
*I *1064:A I *D sky130_fd_sc_hd__nand3_1
*I *1065:B1 I *D sky130_fd_sc_hd__a21o_1
*I *1069:Q O *D sky130_fd_sc_hd__dfrtp_1
*CAP
1 *1064:A 0.000302266
2 *1065:B1 0.000111325
3 *1069:Q 7.98742e-05
4 *150:6 0.000493466
5 *1064:A *1070:D 1.1392e-05
6 *1065:B1 *298:802 2.84137e-05
7 *1066:A *1065:B1 0
8 *1067:A *1065:B1 2.24423e-05
9 *1067:B *1065:B1 0
10 *1068:A2 *1065:B1 0.000186092
11 *1068:B1_N *1065:B1 0
12 *147:8 *1064:A 8.22234e-06
*RES
1 *1069:Q *150:6 2.395 
2 *150:6 *1065:B1 8.51 
3 *150:6 *1064:A 5.08 
*END

*D_NET *151 0.00118331
*CONN
*I *1069:D I *D sky130_fd_sc_hd__dfrtp_1
*I *1068:X O *D sky130_fd_sc_hd__a21bo_1
*CAP
1 *1069:D 0.000530579
2 *1068:X 0.000530579
3 *1069:D *1069:RESET_B 0.000122152
4 *1105:CLK *1069:D 0
*RES
1 *1068:X *1069:D 13.71 
*END

*D_NET *152 0.0014276
*CONN
*I *1074:A I *D sky130_fd_sc_hd__xnor2_1
*I *1075:A1 I *D sky130_fd_sc_hd__a21bo_1
*I *1070:Q O *D sky130_fd_sc_hd__dfrtp_1
*CAP
1 *1074:A 2.48092e-05
2 *1075:A1 0.000237978
3 *1070:Q 0.000187023
4 *152:10 0.000449811
5 *1074:A *282:14 0
6 *1074:A *296:12 4.31106e-05
7 *1075:A1 *1073:A 1.12578e-05
8 *1075:A1 *1073:B 0.000131689
9 *1075:A1 *1074:B 0.000160635
10 *152:10 *282:14 0
11 *152:10 *296:12 9.54399e-05
12 *152:10 *297:233 8.5841e-05
*RES
1 *1070:Q *152:10 6.555 
2 *152:10 *1075:A1 7.86 
3 *152:10 *1074:A 4.215 
*END

*D_NET *153 0.00150016
*CONN
*I *1070:D I *D sky130_fd_sc_hd__dfrtp_1
*I *1067:Y O *D sky130_fd_sc_hd__xnor2_1
*CAP
1 *1070:D 0.000415068
2 *1067:Y 0.000415068
3 *1070:D *1007:RESET_B 1.83847e-05
4 *1070:D *297:171 3.09233e-05
5 *1070:D *297:173 0.00026898
6 *1070:D *303:10 0.000293733
7 *1064:A *1070:D 1.1392e-05
8 *147:8 *1070:D 4.66108e-05
*RES
1 *1067:Y *1070:D 15.21 
*END

*D_NET *154 0.00082515
*CONN
*I *1075:B1_N I *D sky130_fd_sc_hd__a21bo_1
*I *1073:A I *D sky130_fd_sc_hd__nand2_1
*I *1071:Y O *D sky130_fd_sc_hd__nand3_1
*CAP
1 *1075:B1_N 0
2 *1073:A 9.49598e-05
3 *1071:Y 0.000261703
4 *154:12 0.000356663
5 *1073:A *1073:B 4.99619e-05
6 *1073:A *1074:B 3.00381e-05
7 *154:12 *1071:A 5.83121e-06
8 *154:12 *1071:C 1.47347e-05
9 *154:12 *297:233 0
10 *1075:A1 *1073:A 1.12578e-05
*RES
1 *1071:Y *154:12 8.645 
2 *154:12 *1073:A 3.46 
3 *154:12 *1075:B1_N 1.6 
*END

*D_NET *155 0.00111263
*CONN
*I *1073:B I *D sky130_fd_sc_hd__nand2_1
*I *1075:A2 I *D sky130_fd_sc_hd__a21bo_1
*I *1072:X O *D sky130_fd_sc_hd__a21o_1
*CAP
1 *1073:B 0.000110661
2 *1075:A2 0
3 *1072:X 0.000176707
4 *155:12 0.000287368
5 *155:12 *1071:A 5.4003e-05
6 *155:12 *1072:B1 0.000252275
7 *155:12 *297:233 0
8 *155:12 *298:789 4.99619e-05
9 *1073:A *1073:B 4.99619e-05
10 *1075:A1 *1073:B 0.000131689
*RES
1 *1072:X *155:12 9.47 
2 *155:12 *1075:A2 1.6 
3 *155:12 *1073:B 4.135 
*END

*D_NET *156 0.000304084
*CONN
*I *1074:B I *D sky130_fd_sc_hd__xnor2_1
*I *1073:Y O *D sky130_fd_sc_hd__nand2_1
*CAP
1 *1074:B 5.67056e-05
2 *1073:Y 5.67056e-05
3 *1073:A *1074:B 3.00381e-05
4 *1075:A1 *1074:B 0.000160635
*RES
1 *1073:Y *1074:B 4.685 
*END

*D_NET *157 0.00154521
*CONN
*I *1071:A I *D sky130_fd_sc_hd__nand3_1
*I *1072:B1 I *D sky130_fd_sc_hd__a21o_1
*I *1076:Q O *D sky130_fd_sc_hd__dfrtp_1
*CAP
1 *1071:A 0.000147366
2 *1072:B1 0.000109244
3 *1076:Q 7.29378e-05
4 *157:8 0.000329548
5 *1071:A *1071:C 8.35068e-05
6 *1071:A *1072:A1 0.000192231
7 *1071:A *295:14 2.97746e-05
8 *1071:A *297:233 0
9 *1071:A *297:247 0
10 *1072:B1 *1072:A1 0.000241643
11 *1072:B1 *298:196 0
12 *157:8 *1076:D 2.68464e-05
13 *154:12 *1071:A 5.83121e-06
14 *155:12 *1071:A 5.4003e-05
15 *155:12 *1072:B1 0.000252275
*RES
1 *1076:Q *157:8 4.395 
2 *157:8 *1072:B1 7.02 
3 *157:8 *1071:A 7.05 
*END

*D_NET *158 0.000887596
*CONN
*I *1076:D I *D sky130_fd_sc_hd__dfrtp_1
*I *1075:X O *D sky130_fd_sc_hd__a21bo_1
*CAP
1 *1076:D 0.000333629
2 *1075:X 0.000333629
3 *1076:D *1076:RESET_B 0.000117109
4 *42:44 *1076:D 7.63819e-05
5 *157:8 *1076:D 2.68464e-05
*RES
1 *1075:X *1076:D 9.17 
*END

*D_NET *159 0.00154617
*CONN
*I *1082:A1 I *D sky130_fd_sc_hd__a21bo_1
*I *1081:A I *D sky130_fd_sc_hd__xnor2_1
*I *1077:Q O *D sky130_fd_sc_hd__dfrtp_1
*CAP
1 *1082:A1 0.00019466
2 *1081:A 7.30241e-05
3 *1077:Q 0.000142188
4 *159:8 0.000409872
5 *1081:A *166:10 0.000158072
6 *1082:A1 *1081:B 5.83121e-06
7 *1082:A1 *1082:A2 4.99619e-05
8 *1082:A1 *1083:D 3.03775e-05
9 *1082:A1 *295:14 0
10 *1082:A1 *297:247 0.000186099
11 *159:8 *295:14 0
12 *159:8 *297:247 0.000296081
*RES
1 *1077:Q *159:8 7.02 
2 *159:8 *1081:A 5.085 
3 *159:8 *1082:A1 7.575 
*END

*D_NET *160 0.000775425
*CONN
*I *1077:D I *D sky130_fd_sc_hd__dfrtp_1
*I *1074:Y O *D sky130_fd_sc_hd__xnor2_1
*CAP
1 *1077:D 0.000262989
2 *1074:Y 0.000262989
3 *1077:D *293:18 3.68682e-05
4 *1077:D *302:10 5.20968e-05
5 *959:A *1077:D 0.000160483
*RES
1 *1074:Y *1077:D 11.19 
*END

*D_NET *161 0.00105652
*CONN
*I *1082:B1_N I *D sky130_fd_sc_hd__a21bo_1
*I *1080:A I *D sky130_fd_sc_hd__nand2_1
*I *1078:Y O *D sky130_fd_sc_hd__nand3_1
*CAP
1 *1082:B1_N 9.59705e-05
2 *1080:A 0
3 *1078:Y 0.000131695
4 *161:12 0.000227666
5 *1082:B1_N *1081:B 1.33293e-05
6 *1082:B1_N *1082:A2 4.66108e-05
7 *161:12 *999:RESET_B 4.66108e-05
8 *161:12 *162:10 0.000124532
9 *161:12 *164:10 7.4027e-05
10 *161:12 *293:18 0.000296081
*RES
1 *1078:Y *161:12 9.47 
2 *161:12 *1080:A 1.6 
3 *161:12 *1082:B1_N 3.1 
*END

*D_NET *162 0.00101786
*CONN
*I *1080:B I *D sky130_fd_sc_hd__nand2_1
*I *1082:A2 I *D sky130_fd_sc_hd__a21bo_1
*I *1079:X O *D sky130_fd_sc_hd__a21o_1
*CAP
1 *1080:B 0
2 *1082:A2 9.60259e-05
3 *1079:X 7.96529e-05
4 *162:10 0.000175679
5 *1082:A2 *1081:B 7.52861e-05
6 *162:10 *164:10 7.4027e-05
7 *162:10 *282:14 0.000296088
8 *1082:A1 *1082:A2 4.99619e-05
9 *1082:B1_N *1082:A2 4.66108e-05
10 *161:12 *162:10 0.000124532
*RES
1 *1079:X *162:10 9.02 
2 *162:10 *1082:A2 3.775 
3 *162:10 *1080:B 1.6 
*END

*D_NET *163 0.00062694
*CONN
*I *1081:B I *D sky130_fd_sc_hd__xnor2_1
*I *1080:Y O *D sky130_fd_sc_hd__nand2_1
*CAP
1 *1081:B 0.000232543
2 *1080:Y 0.000232543
3 *1081:B *282:14 0
4 *1081:B *296:12 6.74079e-05
5 *1082:A1 *1081:B 5.83121e-06
6 *1082:A2 *1081:B 7.52861e-05
7 *1082:B1_N *1081:B 1.33293e-05
*RES
1 *1080:Y *1081:B 10.755 
*END

*D_NET *164 0.000563026
*CONN
*I *1078:A I *D sky130_fd_sc_hd__nand3_1
*I *1079:B1 I *D sky130_fd_sc_hd__a21o_1
*I *1083:Q O *D sky130_fd_sc_hd__dfrtp_1
*CAP
1 *1078:A 0
2 *1079:B1 2.97592e-05
3 *1083:Q 4.38747e-05
4 *164:10 7.36339e-05
5 *1079:B1 *999:RESET_B 6.97118e-05
6 *1079:B1 *298:63 0.000122331
7 *164:10 *1078:B 8.53113e-06
8 *164:10 *282:14 3.57846e-05
9 *164:10 *293:18 3.13459e-05
10 *161:12 *164:10 7.4027e-05
11 *162:10 *164:10 7.4027e-05
*RES
1 *1083:Q *164:10 7.235 
2 *164:10 *1079:B1 2.74 
3 *164:10 *1078:A 1.6 
*END

*D_NET *165 0.000635393
*CONN
*I *1083:D I *D sky130_fd_sc_hd__dfrtp_1
*I *1082:X O *D sky130_fd_sc_hd__a21bo_1
*CAP
1 *1083:D 0.000283031
2 *1082:X 0.000283031
3 *1083:D *295:14 3.89528e-05
4 *1083:D *297:247 0
5 *1082:A1 *1083:D 3.03775e-05
*RES
1 *1082:X *1083:D 10.845 
*END

*D_NET *166 0.00259874
*CONN
*I *1088:A I *D sky130_fd_sc_hd__xnor2_1
*I *1089:A1 I *D sky130_fd_sc_hd__a21bo_1
*I *1084:Q O *D sky130_fd_sc_hd__dfrtp_1
*CAP
1 *1088:A 0
2 *1089:A1 0.000298138
3 *1084:Q 0.000635113
4 *166:10 0.000933251
5 *1089:A1 *1085:A 3.5981e-05
6 *1089:A1 *1089:A2 8.35068e-05
7 *1089:A1 *1089:B1_N 7.14241e-05
8 *1089:A1 *298:37 0.000151942
9 *1089:A1 *298:194 0.000186099
10 *166:10 *1084:D 2.77183e-05
11 *1081:A *166:10 0.000158072
12 *42:103 *1089:A1 1.74958e-05
*RES
1 *1084:Q *166:10 10.705 
2 *166:10 *1089:A1 11.93 
3 *166:10 *1088:A 1.6 
*END

*D_NET *167 0.00125156
*CONN
*I *1084:D I *D sky130_fd_sc_hd__dfrtp_1
*I *1081:Y O *D sky130_fd_sc_hd__xnor2_1
*CAP
1 *1084:D 0.000550597
2 *1081:Y 0.000550597
3 *43:54 *1084:D 0.000122644
4 *166:10 *1084:D 2.77183e-05
*RES
1 *1081:Y *1084:D 9.56 
*END

*D_NET *168 0.000769746
*CONN
*I *1087:A I *D sky130_fd_sc_hd__nand2_1
*I *1089:B1_N I *D sky130_fd_sc_hd__a21bo_1
*I *1085:Y O *D sky130_fd_sc_hd__nand3_1
*CAP
1 *1087:A 8.79409e-05
2 *1089:B1_N 0.000130444
3 *1085:Y 0
4 *168:4 0.000218385
5 *1087:A *1085:A 6.82353e-05
6 *1087:A *1085:B 1.52352e-05
7 *1089:B1_N *1085:A 0.000117297
8 *1089:B1_N *1087:B 4.66108e-05
9 *1089:B1_N *298:186 5.83121e-06
10 *1089:B1_N *298:194 8.34281e-06
11 *1089:A1 *1089:B1_N 7.14241e-05
*RES
1 *1085:Y *168:4 1.6 
2 *168:4 *1089:B1_N 7.715 
3 *168:4 *1087:A 3.01 
*END

*D_NET *169 0.00165292
*CONN
*I *1087:B I *D sky130_fd_sc_hd__nand2_1
*I *1089:A2 I *D sky130_fd_sc_hd__a21bo_1
*I *1086:X O *D sky130_fd_sc_hd__a21o_1
*CAP
1 *1087:B 0.000271746
2 *1089:A2 6.39217e-05
3 *1086:X 1.52102e-05
4 *169:6 0.000350878
5 *1087:B *1085:A 0.000121023
6 *1087:B *1085:B 0.000160679
7 *1087:B *1086:A1 4.76682e-05
8 *1087:B *1086:A2 4.77719e-05
9 *1087:B *292:12 2.84864e-05
10 *1087:B *295:14 0.00013994
11 *1089:A2 *298:37 8.58063e-05
12 *169:6 *1085:A 4.66108e-05
13 *169:6 *298:37 8.65905e-05
14 *1083:CLK *1087:B 5.64664e-05
15 *1089:A1 *1089:A2 8.35068e-05
16 *1089:B1_N *1087:B 4.66108e-05
*RES
1 *1086:X *169:6 2.395 
2 *169:6 *1089:A2 3.085 
3 *169:6 *1087:B 11.51 
*END

*D_NET *170 0.000410587
*CONN
*I *1088:B I *D sky130_fd_sc_hd__xnor2_1
*I *1087:Y O *D sky130_fd_sc_hd__nand2_1
*CAP
1 *1088:B 0.000123059
2 *1087:Y 0.000123059
3 *1088:B *1085:B 4.8854e-05
4 *42:103 *1088:B 0.000115614
*RES
1 *1087:Y *1088:B 9.375 
*END

*D_NET *171 0.00119988
*CONN
*I *1086:B1 I *D sky130_fd_sc_hd__a21o_1
*I *1085:A I *D sky130_fd_sc_hd__nand3_1
*I *1090:Q O *D sky130_fd_sc_hd__dfrtp_1
*CAP
1 *1086:B1 0
2 *1085:A 0.000132035
3 *1090:Q 5.99062e-05
4 *171:10 0.000191941
5 *1085:A *1085:B 3.59921e-05
6 *1085:A *298:37 1.43253e-05
7 *1085:A *298:194 5.83121e-06
8 *171:10 *1086:A2 2.43962e-05
9 *171:10 *298:54 4.45827e-05
10 *1083:CLK *1085:A 4.77719e-05
11 *1087:A *1085:A 6.82353e-05
12 *1087:B *1085:A 0.000121023
13 *1089:A1 *1085:A 3.5981e-05
14 *1089:B1_N *1085:A 0.000117297
15 *42:103 *1085:A 0.000132842
16 *42:103 *171:10 1.01155e-05
17 *42:120 *171:10 0.00011099
18 *169:6 *1085:A 4.66108e-05
*RES
1 *1090:Q *171:10 7.235 
2 *171:10 *1085:A 9.53 
3 *171:10 *1086:B1 1.6 
*END

*D_NET *172 0.000666832
*CONN
*I *1090:D I *D sky130_fd_sc_hd__dfrtp_1
*I *1089:X O *D sky130_fd_sc_hd__a21bo_1
*CAP
1 *1090:D 0.000242961
2 *1089:X 0.000242961
3 *1090:D *290:14 6.47516e-05
4 *1090:D *297:286 0.000116158
*RES
1 *1089:X *1090:D 10.755 
*END

*D_NET *173 0.00108735
*CONN
*I *1095:A I *D sky130_fd_sc_hd__xnor2_1
*I *1096:A1 I *D sky130_fd_sc_hd__a21bo_1
*I *1091:Q O *D sky130_fd_sc_hd__dfrtp_1
*CAP
1 *1095:A 0
2 *1096:A1 0.000264196
3 *1091:Q 0.00012466
4 *173:8 0.000388856
5 *1096:A1 *271:8 0
6 *1096:A1 *286:12 0.000218237
7 *173:8 *1095:B 9.13951e-05
*RES
1 *1091:Q *173:8 3.79 
2 *173:8 *1096:A1 11.57 
3 *173:8 *1095:A 1.6 
*END

*D_NET *174 0.00040667
*CONN
*I *1091:D I *D sky130_fd_sc_hd__dfrtp_1
*I *1088:Y O *D sky130_fd_sc_hd__xnor2_1
*CAP
1 *1091:D 0.000163007
2 *1088:Y 0.000163007
3 *1091:D *297:286 0
4 *1091:D *297:288 0
5 *1091:D *298:194 3.17252e-05
6 *1091:CLK *1091:D 4.89295e-05
*RES
1 *1088:Y *1091:D 9.81 
*END

*D_NET *175 0.000525301
*CONN
*I *1094:A I *D sky130_fd_sc_hd__nand2_1
*I *1096:B1_N I *D sky130_fd_sc_hd__a21bo_1
*I *1092:Y O *D sky130_fd_sc_hd__nand3_1
*CAP
1 *1094:A 0.000112038
2 *1096:B1_N 9.89794e-05
3 *1092:Y 0
4 *175:4 0.000211018
5 *1094:A *1092:A 3.70572e-05
6 *1094:A *1094:B 3.04757e-05
7 *1096:B1_N *1094:B 3.0807e-05
8 *1096:B1_N *1096:A2 4.9253e-06
*RES
1 *1092:Y *175:4 1.6 
2 *175:4 *1096:B1_N 2.74 
3 *175:4 *1094:A 3.565 
*END

*D_NET *176 0.00166176
*CONN
*I *1094:B I *D sky130_fd_sc_hd__nand2_1
*I *1096:A2 I *D sky130_fd_sc_hd__a21bo_1
*I *1093:X O *D sky130_fd_sc_hd__a21o_1
*CAP
1 *1094:B 0.000240941
2 *1096:A2 0.000126472
3 *1093:X 8.81323e-05
4 *176:10 0.000455546
5 *1094:B *1092:A 9.46479e-05
6 *176:10 *274:14 0.000293726
7 *176:10 *286:12 0.000296088
8 *1094:A *1094:B 3.04757e-05
9 *1096:B1_N *1094:B 3.0807e-05
10 *1096:B1_N *1096:A2 4.9253e-06
*RES
1 *1093:X *176:10 9.02 
2 *176:10 *1096:A2 3.43 
3 *176:10 *1094:B 5.44 
*END

*D_NET *177 0.00144836
*CONN
*I *1095:B I *D sky130_fd_sc_hd__xnor2_1
*I *1094:Y O *D sky130_fd_sc_hd__nand2_1
*CAP
1 *1095:B 0.000472989
2 *1094:Y 0.000472989
3 *1095:B *1093:A2 0.000116853
4 *1095:B *274:14 0
5 *1095:B *289:18 0.000294131
6 *1095:B *298:10 0
7 *173:8 *1095:B 9.13951e-05
*RES
1 *1094:Y *1095:B 16.74 
*END

*D_NET *178 0.00126552
*CONN
*I *1093:B1 I *D sky130_fd_sc_hd__a21o_1
*I *1092:A I *D sky130_fd_sc_hd__nand3_1
*I *1097:Q O *D sky130_fd_sc_hd__dfrtp_1
*CAP
1 *1093:B1 0.000180811
2 *1092:A 0.000113686
3 *1097:Q 0
4 *178:6 0.000294497
5 *1092:A *1093:A2 0.000124768
6 *1092:A *289:18 0.000226855
7 *1093:B1 *1093:A2 4.65643e-05
8 *1093:B1 *289:18 7.4027e-05
9 *1093:B1 *291:10 7.26037e-05
10 *1094:A *1092:A 3.70572e-05
11 *1094:B *1092:A 9.46479e-05
*RES
1 *1097:Q *178:6 3.6 
2 *178:6 *1092:A 7.41 
3 *178:6 *1093:B1 6.915 
*END

*D_NET *179 0.000389186
*CONN
*I *1097:D I *D sky130_fd_sc_hd__dfrtp_1
*I *1096:X O *D sky130_fd_sc_hd__a21bo_1
*CAP
1 *1097:D 0.00013568
2 *1096:X 0.00013568
3 *1097:D *271:8 0.000117825
4 *1097:D *286:12 0
*RES
1 *1096:X *1097:D 9.375 
*END

*D_NET *180 0.00229677
*CONN
*I *1102:A I *D sky130_fd_sc_hd__xnor2_1
*I *1103:A1 I *D sky130_fd_sc_hd__a21bo_1
*I *1098:Q O *D sky130_fd_sc_hd__dfrtp_1
*CAP
1 *1102:A 2.49103e-05
2 *1103:A1 0.000349115
3 *1098:Q 0.000181217
4 *180:12 0.000555243
5 *1102:A *1103:B1_N 2.54431e-05
6 *1102:A *1104:RESET_B 8.49205e-05
7 *1103:A1 *1103:B1_N 0.000104162
8 *1103:A1 *1104:D 0
9 *1103:A1 *1104:RESET_B 7.50775e-05
10 *1103:A1 *271:8 0
11 *1103:A1 *286:12 0.000103192
12 *180:12 *1098:RESET_B 4.82863e-05
13 *180:12 *1099:A 0.000115464
14 *180:12 *1100:B1 5.33085e-05
15 *180:12 *182:10 6.10014e-05
16 *180:12 *289:18 0.000174846
17 *180:12 *290:14 0.00034058
*RES
1 *1098:Q *180:12 11.51 
2 *180:12 *1103:A1 12.005 
3 *180:12 *1102:A 2.395 
*END

*D_NET *181 0.000387186
*CONN
*I *1098:D I *D sky130_fd_sc_hd__dfrtp_1
*I *1095:Y O *D sky130_fd_sc_hd__xnor2_1
*CAP
1 *1098:D 0.0001335
2 *1095:Y 0.0001335
3 *1098:D *271:8 0.000120186
4 *1098:D *286:12 0
*RES
1 *1095:Y *1098:D 9.375 
*END

*D_NET *182 0.0020225
*CONN
*I *1103:B1_N I *D sky130_fd_sc_hd__a21bo_1
*I *1101:A I *D sky130_fd_sc_hd__nand2_1
*I *1099:Y O *D sky130_fd_sc_hd__nand3_1
*CAP
1 *1103:B1_N 0.000323004
2 *1101:A 6.05409e-05
3 *1099:Y 0.000164834
4 *182:10 0.000548379
5 *1101:A *1102:B 7.23533e-05
6 *1101:A *289:18 0
7 *1101:A *297:296 7.63125e-05
8 *1101:A *298:229 4.18603e-06
9 *1103:B1_N *1100:A1 0.00015332
10 *1103:B1_N *1100:B1 1.08758e-05
11 *1103:B1_N *1101:B 8.8266e-05
12 *1103:B1_N *183:6 3.00381e-05
13 *1103:B1_N *274:14 6.65066e-05
14 *182:10 *1100:B1 5.12017e-06
15 *182:10 *1102:B 4.54719e-05
16 *182:10 *290:14 8.40269e-05
17 *182:10 *297:292 4.5783e-05
18 *182:10 *297:296 5.28781e-05
19 *1102:A *1103:B1_N 2.54431e-05
20 *1103:A1 *1103:B1_N 0.000104162
21 *180:12 *182:10 6.10014e-05
*RES
1 *1099:Y *182:10 6.885 
2 *182:10 *1101:A 5.235 
3 *182:10 *1103:B1_N 12.805 
*END

*D_NET *183 0.00110465
*CONN
*I *1101:B I *D sky130_fd_sc_hd__nand2_1
*I *1103:A2 I *D sky130_fd_sc_hd__a21bo_1
*I *1100:X O *D sky130_fd_sc_hd__a21o_1
*CAP
1 *1101:B 0.000298728
2 *1103:A2 0.000108346
3 *1100:X 3.49301e-05
4 *183:6 0.000442004
5 *1101:B *1099:C 8.73389e-06
6 *1101:B *1100:A1 3.54502e-05
7 *1101:B *1100:B1 4.02834e-05
8 *1101:B *298:204 1.17409e-05
9 *1101:B *298:221 6.12918e-06
10 *1103:B1_N *1101:B 8.8266e-05
11 *1103:B1_N *183:6 3.00381e-05
*RES
1 *1100:X *183:6 2.395 
2 *183:6 *1103:A2 3.085 
3 *183:6 *1101:B 5.9125 
*END

*D_NET *184 0.000269248
*CONN
*I *1102:B I *D sky130_fd_sc_hd__xnor2_1
*I *1101:Y O *D sky130_fd_sc_hd__nand2_1
*CAP
1 *1102:B 4.52108e-05
2 *1101:Y 4.52108e-05
3 *1102:B *1100:B1 6.10014e-05
4 *1101:A *1102:B 7.23533e-05
5 *182:10 *1102:B 4.54719e-05
*RES
1 *1101:Y *1102:B 8.58 
*END

*D_NET *185 0.00122675
*CONN
*I *1099:A I *D sky130_fd_sc_hd__nand3_1
*I *1100:B1 I *D sky130_fd_sc_hd__a21o_1
*I *1104:Q O *D sky130_fd_sc_hd__dfrtp_1
*CAP
1 *1099:A 3.54457e-05
2 *1100:B1 0.000241026
3 *1104:Q 0
4 *185:6 0.000276472
5 *1099:A *289:18 0.00010596
6 *1100:B1 *1099:C 8.40269e-05
7 *1100:B1 *1100:A1 5.4155e-06
8 *1100:B1 *289:18 0.000180689
9 *1100:B1 *298:204 1.16578e-05
10 *1100:B1 *298:221 0
11 *1101:B *1100:B1 4.02834e-05
12 *1102:B *1100:B1 6.10014e-05
13 *1103:B1_N *1100:B1 1.08758e-05
14 *180:12 *1099:A 0.000115464
15 *180:12 *1100:B1 5.33085e-05
16 *182:10 *1100:B1 5.12017e-06
*RES
1 *1104:Q *185:6 3.6 
2 *185:6 *1100:B1 8.55 
3 *185:6 *1099:A 4.98 
*END

*D_NET *186 0.000445222
*CONN
*I *1104:D I *D sky130_fd_sc_hd__dfrtp_1
*I *1103:X O *D sky130_fd_sc_hd__a21bo_1
*CAP
1 *1104:D 0.000162518
2 *1103:X 0.000162518
3 *1104:D *271:8 0.000120186
4 *1103:A1 *1104:D 0
*RES
1 *1103:X *1104:D 9.72 
*END

*D_NET *187 0.00189756
*CONN
*I *1109:A I *D sky130_fd_sc_hd__xnor2_1
*I *1110:A1 I *D sky130_fd_sc_hd__a21bo_1
*I *1105:Q O *D sky130_fd_sc_hd__dfrtp_1
*CAP
1 *1109:A 7.35363e-05
2 *1110:A1 0.000299293
3 *1105:Q 0.000247178
4 *187:12 0.000620008
5 *1109:A *1109:B 4.82919e-05
6 *1109:A *1111:RESET_B 1.61831e-05
7 *1110:A1 *1106:B 1.07797e-05
8 *1110:A1 *1108:B 6.58423e-05
9 *1110:A1 *1109:B 8.23457e-05
10 *1110:A1 *1110:A2 0.000264834
11 *1110:A1 *1111:RESET_B 1.99681e-05
12 *1110:A1 *274:14 0
13 *187:12 *1108:A 5.16418e-05
14 *187:12 *289:18 0
15 *187:12 *297:308 0
16 *187:12 *298:229 0
17 *187:12 *298:244 9.766e-05
*RES
1 *1105:Q *187:12 9.98 
2 *187:12 *1110:A1 11.15 
3 *187:12 *1109:A 3.01 
*END

*D_NET *188 0.00129582
*CONN
*I *1105:D I *D sky130_fd_sc_hd__dfrtp_1
*I *1102:Y O *D sky130_fd_sc_hd__xnor2_1
*CAP
1 *1105:D 0.000442743
2 *1102:Y 0.000442743
3 *1105:D *1069:RESET_B 0
4 *1105:D *1105:RESET_B 2.91561e-06
5 *1105:D *297:296 0.000270647
6 *1105:D *297:302 6.23763e-05
7 *1105:D *297:308 0
8 *1105:D *298:229 0
9 *1105:CLK *1105:D 7.43984e-05
10 *42:10 *1105:D 0
*RES
1 *1102:Y *1105:D 15.465 
*END

*D_NET *189 0.00087525
*CONN
*I *1108:A I *D sky130_fd_sc_hd__nand2_1
*I *1110:B1_N I *D sky130_fd_sc_hd__a21bo_1
*I *1106:Y O *D sky130_fd_sc_hd__nand3_1
*CAP
1 *1108:A 0.000139283
2 *1110:B1_N 0.0001671
3 *1106:Y 0
4 *189:4 0.000306383
5 *1108:A *298:244 0.000136884
6 *1110:B1_N *1106:A 6.69491e-05
7 *1110:B1_N *1110:A2 7.00889e-06
8 *187:12 *1108:A 5.16418e-05
*RES
1 *1106:Y *189:4 1.6 
2 *189:4 *1110:B1_N 4.585 
3 *189:4 *1108:A 8.03 
*END

*D_NET *190 0.00126016
*CONN
*I *1108:B I *D sky130_fd_sc_hd__nand2_1
*I *1110:A2 I *D sky130_fd_sc_hd__a21bo_1
*I *1107:X O *D sky130_fd_sc_hd__a21o_1
*CAP
1 *1108:B 3.70426e-05
2 *1110:A2 0.000157269
3 *1107:X 5.70908e-05
4 *190:8 0.000251402
5 *1108:B *1111:RESET_B 0.000119762
6 *1110:A2 *1106:B 0.000183745
7 *1110:A2 *274:14 0
8 *190:8 *1106:B 0.000116165
9 *190:8 *274:14 0
10 *1110:A1 *1108:B 6.58423e-05
11 *1110:A1 *1110:A2 0.000264834
12 *1110:B1_N *1110:A2 7.00889e-06
*RES
1 *1107:X *190:8 4.98 
2 *190:8 *1110:A2 7.575 
3 *190:8 *1108:B 4.74 
*END

*D_NET *191 0.000273751
*CONN
*I *1109:B I *D sky130_fd_sc_hd__xnor2_1
*I *1108:Y O *D sky130_fd_sc_hd__nand2_1
*CAP
1 *1109:B 3.86355e-05
2 *1108:Y 3.86355e-05
3 *1109:B *1111:RESET_B 6.58423e-05
4 *1109:A *1109:B 4.82919e-05
5 *1110:A1 *1109:B 8.23457e-05
*RES
1 *1108:Y *1109:B 4.34 
*END

*D_NET *192 0.0012565
*CONN
*I *1107:B1 I *D sky130_fd_sc_hd__a21o_1
*I *1106:A I *D sky130_fd_sc_hd__nand3_1
*I *1111:Q O *D sky130_fd_sc_hd__dfrtp_1
*CAP
1 *1107:B1 8.27084e-05
2 *1106:A 0.00010823
3 *1111:Q 0
4 *192:6 0.000190938
5 *1106:A *1106:B 0.000228515
6 *1106:A *298:244 0.000126635
7 *1107:B1 *1106:B 0.000170857
8 *1107:B1 *1107:A1 4.82863e-05
9 *1107:B1 *1107:A2 0.000160635
10 *1107:B1 *289:18 7.21296e-06
11 *1107:B1 *298:244 6.55328e-05
12 *1110:B1_N *1106:A 6.69491e-05
*RES
1 *1111:Q *192:6 3.6 
2 *192:6 *1106:A 7.065 
3 *192:6 *1107:B1 6.465 
*END

*D_NET *193 0.000576209
*CONN
*I *1111:D I *D sky130_fd_sc_hd__dfrtp_1
*I *1110:X O *D sky130_fd_sc_hd__a21bo_1
*CAP
1 *1111:D 0.000228845
2 *1110:X 0.000228845
3 *1111:D *271:8 0
4 *1111:D *286:12 0.00011852
*RES
1 *1110:X *1111:D 11.1 
*END

*D_NET *194 0.00116488
*CONN
*I *1116:A I *D sky130_fd_sc_hd__xnor2_1
*I *1117:A1 I *D sky130_fd_sc_hd__a21bo_1
*I *1112:Q O *D sky130_fd_sc_hd__dfrtp_1
*CAP
1 *1116:A 0
2 *1117:A1 0.000180709
3 *1112:Q 0.000248345
4 *194:12 0.000429055
5 *1117:A1 *1117:A2 8.65905e-05
6 *194:12 *1115:B 0.00013687
7 *194:12 *1116:B 6.55406e-05
8 *194:12 *201:10 1.77665e-05
9 *194:12 *298:265 0
10 *194:12 *298:269 0
*RES
1 *1112:Q *194:12 10.16 
2 *194:12 *1117:A1 4.465 
3 *194:12 *1116:A 1.6 
*END

*D_NET *195 0.00131454
*CONN
*I *1112:D I *D sky130_fd_sc_hd__dfrtp_1
*I *1109:Y O *D sky130_fd_sc_hd__xnor2_1
*CAP
1 *1112:D 0.000610301
2 *1109:Y 0.000610301
3 *1112:D *1111:RESET_B 9.39355e-05
4 *1112:D *297:310 0
5 *1062:CLK *1112:D 0
*RES
1 *1109:Y *1112:D 16.245 
*END

*D_NET *196 0.000549456
*CONN
*I *1115:A I *D sky130_fd_sc_hd__nand2_1
*I *1117:B1_N I *D sky130_fd_sc_hd__a21bo_1
*I *1113:Y O *D sky130_fd_sc_hd__nand3_1
*CAP
1 *1115:A 0.000150754
2 *1117:B1_N 2.56286e-05
3 *1113:Y 0
4 *196:4 0.000176383
5 *1115:A *1118:RESET_B 8.38013e-05
6 *1117:B1_N *1117:A2 4.05358e-05
7 *1117:B1_N *298:269 7.23533e-05
*RES
1 *1113:Y *196:4 1.6 
2 *196:4 *1117:B1_N 6.47 
3 *196:4 *1115:A 3.7 
*END

*D_NET *197 0.00179812
*CONN
*I *1115:B I *D sky130_fd_sc_hd__nand2_1
*I *1117:A2 I *D sky130_fd_sc_hd__a21bo_1
*I *1114:X O *D sky130_fd_sc_hd__a21o_1
*CAP
1 *1115:B 0.000336438
2 *1117:A2 0.00018306
3 *1114:X 4.25238e-05
4 *197:6 0.000562022
5 *1115:B *1114:A2 2.65814e-06
6 *1115:B *298:265 3.0807e-05
7 *1117:A2 *1113:A 7.47215e-05
8 *1117:A2 *1113:B 0.000137571
9 *1117:A2 *1114:B1 7.23533e-05
10 *1117:A2 *1118:D 4.17926e-05
11 *1117:A2 *274:14 0
12 *1117:A2 *298:265 4.24292e-06
13 *1117:A2 *298:269 3.35508e-05
14 *197:6 *1114:A2 8.73389e-06
15 *197:6 *1114:B1 3.64998e-06
16 *1117:A1 *1117:A2 8.65905e-05
17 *1117:B1_N *1117:A2 4.05358e-05
18 *194:12 *1115:B 0.00013687
*RES
1 *1114:X *197:6 2.05 
2 *197:6 *1117:A2 10.415 
3 *197:6 *1115:B 10.1 
*END

*D_NET *198 0.000236337
*CONN
*I *1116:B I *D sky130_fd_sc_hd__xnor2_1
*I *1115:Y O *D sky130_fd_sc_hd__nand2_1
*CAP
1 *1116:B 8.53982e-05
2 *1115:Y 8.53982e-05
3 *1116:B *297:327 0
4 *1116:B *298:269 0
5 *194:12 *1116:B 6.55406e-05
*RES
1 *1115:Y *1116:B 8.835 
*END

*D_NET *199 0.000667258
*CONN
*I *1114:B1 I *D sky130_fd_sc_hd__a21o_1
*I *1113:A I *D sky130_fd_sc_hd__nand3_1
*I *1118:Q O *D sky130_fd_sc_hd__dfrtp_1
*CAP
1 *1114:B1 0.000101186
2 *1113:A 4.75066e-05
3 *1118:Q 0
4 *199:6 0.000148693
5 *1113:A *1118:RESET_B 4.82863e-05
6 *1113:A *274:14 0
7 *1114:B1 *1113:B 3.76596e-05
8 *1114:B1 *1114:A2 8.65905e-05
9 *1114:B1 *274:14 0
10 *1117:A2 *1113:A 7.47215e-05
11 *1117:A2 *1114:B1 7.23533e-05
12 *1118:CLK *1113:A 4.66108e-05
13 *197:6 *1114:B1 3.64998e-06
*RES
1 *1118:Q *199:6 3.6 
2 *199:6 *1113:A 4.92 
3 *199:6 *1114:B1 6.03 
*END

*D_NET *200 0.00130602
*CONN
*I *1118:D I *D sky130_fd_sc_hd__dfrtp_1
*I *1117:X O *D sky130_fd_sc_hd__a21bo_1
*CAP
1 *1118:D 0.000506552
2 *1117:X 0.000506552
3 *1118:D *1118:RESET_B 4.24575e-05
4 *1118:D *274:14 0
5 *1117:A2 *1118:D 4.17926e-05
6 *1118:CLK *1118:D 0.000208662
*RES
1 *1117:X *1118:D 14.415 
*END

*D_NET *201 0.00200571
*CONN
*I *1131:A1 I *D sky130_fd_sc_hd__a21bo_1
*I *1130:A I *D sky130_fd_sc_hd__xnor2_1
*I *1119:Q O *D sky130_fd_sc_hd__dfrtp_1
*CAP
1 *1131:A1 0.000160482
2 *1130:A 0.000173797
3 *1119:Q 0.000270142
4 *201:10 0.000604421
5 *1130:A *1128:A2 3.09164e-05
6 *1130:A *1129:B 0
7 *1130:A *297:327 0
8 *1131:A1 *1128:A1 0.000360166
9 *1131:A1 *1128:B1 7.74099e-05
10 *1131:A1 *1131:A2 0.000197269
11 *201:10 *1119:D 2.80988e-05
12 *201:10 *1128:A2 8.5242e-05
13 *201:10 *297:327 0
14 *201:10 *298:269 0
15 *194:12 *201:10 1.77665e-05
*RES
1 *1119:Q *201:10 7.905 
2 *201:10 *1130:A 6.255 
3 *201:10 *1131:A1 8.22 
*END

*D_NET *202 0.000888951
*CONN
*I *1119:D I *D sky130_fd_sc_hd__dfrtp_1
*I *1116:Y O *D sky130_fd_sc_hd__xnor2_1
*CAP
1 *1119:D 0.000430426
2 *1116:Y 0.000430426
3 *201:10 *1119:D 2.80988e-05
*RES
1 *1116:Y *1119:D 9.53 
*END

*D_NET *203 0.00140599
*CONN
*I *1124:B1_N I *D sky130_fd_sc_hd__a21bo_1
*I *1122:A I *D sky130_fd_sc_hd__nand2_1
*I *1120:Y O *D sky130_fd_sc_hd__nand3_1
*CAP
1 *1124:B1_N 0
2 *1122:A 7.48684e-05
3 *1120:Y 0.000199271
4 *203:10 0.00027414
5 *1122:A *204:12 5.4003e-05
6 *1122:A *280:12 0.000249227
7 *1122:A *283:10 0.000106869
8 *203:10 *1120:A 0.000164874
9 *203:10 *204:12 7.4027e-05
10 *203:10 *280:12 0.000156842
11 *203:10 *283:10 5.18691e-05
*RES
1 *1120:Y *203:10 8.01 
2 *203:10 *1122:A 6.51 
3 *203:10 *1124:B1_N 3.6 
*END

*D_NET *204 0.00120246
*CONN
*I *1122:B I *D sky130_fd_sc_hd__nand2_1
*I *1124:A2 I *D sky130_fd_sc_hd__a21bo_1
*I *1121:X O *D sky130_fd_sc_hd__a21o_1
*CAP
1 *1122:B 6.21008e-05
2 *1124:A2 6.52139e-05
3 *1121:X 9.36856e-05
4 *204:12 0.000221
5 *1122:B *280:12 0.000206123
6 *1122:B *281:12 0.000113972
7 *204:12 *283:10 0.000118527
8 *1122:A *204:12 5.4003e-05
9 *1124:A1 *1124:A2 8.49205e-05
10 *1124:A1 *204:12 0.000108886
11 *203:10 *204:12 7.4027e-05
*RES
1 *1121:X *204:12 8.12 
2 *204:12 *1124:A2 2.74 
3 *204:12 *1122:B 8 
*END

*D_NET *205 0.000853312
*CONN
*I *1123:B I *D sky130_fd_sc_hd__xnor2_1
*I *1122:Y O *D sky130_fd_sc_hd__nand2_1
*CAP
1 *1123:B 0.00032913
2 *1122:Y 0.00032913
3 *1123:B *1126:D 3.86607e-05
4 *1123:B *206:12 0.00015639
5 *1123:B *284:10 0
*RES
1 *1122:Y *1123:B 11.445 
*END

*D_NET *206 0.00157006
*CONN
*I *1120:A I *D sky130_fd_sc_hd__nand3_1
*I *1121:B1 I *D sky130_fd_sc_hd__a21o_1
*I *1125:Q O *D sky130_fd_sc_hd__dfrtp_1
*CAP
1 *1120:A 5.47579e-05
2 *1121:B1 0
3 *1125:Q 0.000314468
4 *206:12 0.000369226
5 *1120:A *1121:A1 3.25635e-05
6 *1120:A *1121:A2 0.000101806
7 *1120:A *285:14 9.72742e-06
8 *206:12 *1126:D 4.94404e-05
9 *206:12 *283:10 0.000316806
10 *1123:B *206:12 0.00015639
11 *131:12 *206:12 0
12 *203:10 *1120:A 0.000164874
*RES
1 *1125:Q *206:12 11.795 
2 *206:12 *1121:B1 1.6 
3 *206:12 *1120:A 3.805 
*END

*D_NET *207 0.000831781
*CONN
*I *1125:D I *D sky130_fd_sc_hd__dfrtp_1
*I *1124:X O *D sky130_fd_sc_hd__a21bo_1
*CAP
1 *1125:D 0.000392369
2 *1124:X 0.000392369
3 *1125:D *281:12 4.7043e-05
4 *1125:D *297:122 0
*RES
1 *1124:X *1125:D 13.17 
*END

*D_NET *208 0.0013514
*CONN
*I *1145:A1 I *D sky130_fd_sc_hd__a21bo_1
*I *1144:A I *D sky130_fd_sc_hd__xnor2_1
*I *1126:Q O *D sky130_fd_sc_hd__dfrtp_1
*CAP
1 *1145:A1 1.17533e-05
2 *1144:A 0.00017022
3 *1126:Q 0.000401129
4 *208:10 0.000583102
5 *1144:A *1141:A 9.29751e-06
6 *1144:A *1141:B 4.51867e-05
7 *1144:A *1142:A2 0
8 *1144:A *1145:B1_N 5.49093e-05
9 *1144:A *283:10 0
10 *1145:A1 *1142:B1 4.82863e-05
11 *1145:A1 *1145:A2 2.75145e-05
12 *208:10 *283:10 0
*RES
1 *1126:Q *208:10 8.19 
2 *208:10 *1144:A 6.555 
3 *208:10 *1145:A1 4.05 
*END

*D_NET *209 0.000957699
*CONN
*I *1126:D I *D sky130_fd_sc_hd__dfrtp_1
*I *1123:Y O *D sky130_fd_sc_hd__xnor2_1
*CAP
1 *1126:D 0.000313395
2 *1123:Y 0.000313395
3 *1126:D *1126:RESET_B 8.47235e-05
4 *1126:D *283:10 0.000158084
5 *1126:D *284:10 0
6 *1123:B *1126:D 3.86607e-05
7 *206:12 *1126:D 4.94404e-05
*RES
1 *1123:Y *1126:D 14.145 
*END

*D_NET *210 0.00115447
*CONN
*I *1131:B1_N I *D sky130_fd_sc_hd__a21bo_1
*I *1129:A I *D sky130_fd_sc_hd__nand2_1
*I *1127:Y O *D sky130_fd_sc_hd__nand3_1
*CAP
1 *1131:B1_N 3.22719e-05
2 *1129:A 0.000113203
3 *1127:Y 0.000189545
4 *210:6 0.00033502
5 *1129:A *1129:B 0.000113964
6 *1129:A *298:294 9.32652e-05
7 *1131:B1_N *1128:B1 3.74161e-05
8 *210:6 *1127:A 4.0843e-05
9 *210:6 *1128:B1 0.000198939
*RES
1 *1127:Y *210:6 4.12 
2 *210:6 *1129:A 8.51 
3 *210:6 *1131:B1_N 2.05 
*END

*D_NET *211 0.000893508
*CONN
*I *1129:B I *D sky130_fd_sc_hd__nand2_1
*I *1131:A2 I *D sky130_fd_sc_hd__a21bo_1
*I *1128:X O *D sky130_fd_sc_hd__a21o_1
*CAP
1 *1129:B 0.000117594
2 *1131:A2 4.53614e-05
3 *1128:X 0
4 *211:4 0.000162956
5 *1131:A2 *1128:A1 2.16833e-05
6 *1131:A2 *1128:B1 0.00023468
7 *1129:A *1129:B 0.000113964
8 *1130:A *1129:B 0
9 *1131:A1 *1131:A2 0.000197269
*RES
1 *1128:X *211:4 1.6 
2 *211:4 *1131:A2 3.775 
3 *211:4 *1129:B 8 
*END

*D_NET *212 0.000340671
*CONN
*I *1130:B I *D sky130_fd_sc_hd__xnor2_1
*I *1129:Y O *D sky130_fd_sc_hd__nand2_1
*CAP
1 *1130:B 9.77437e-05
2 *1129:Y 9.77437e-05
3 *1130:B *1132:RESET_B 0.000145184
*RES
1 *1129:Y *1130:B 5.375 
*END

*D_NET *213 0.00156769
*CONN
*I *1128:B1 I *D sky130_fd_sc_hd__a21o_1
*I *1127:A I *D sky130_fd_sc_hd__nand3_1
*I *1132:Q O *D sky130_fd_sc_hd__dfrtp_1
*CAP
1 *1128:B1 0.000132886
2 *1127:A 2.36417e-05
3 *1132:Q 0.000182192
4 *213:12 0.00033872
5 *1127:A *1127:C 4.82863e-05
6 *1127:A *1128:A1 2.05056e-05
7 *1128:B1 *1127:C 0
8 *1128:B1 *1128:A1 9.80943e-06
9 *213:12 *1127:C 2.92496e-05
10 *213:12 *1128:A1 7.21296e-06
11 *213:12 *1132:D 7.4027e-05
12 *213:12 *1132:RESET_B 3.74308e-05
13 *213:12 *298:294 7.44453e-05
14 *1131:A1 *1128:B1 7.74099e-05
15 *1131:A2 *1128:B1 0.00023468
16 *1131:B1_N *1128:B1 3.74161e-05
17 *210:6 *1127:A 4.0843e-05
18 *210:6 *1128:B1 0.000198939
*RES
1 *1132:Q *213:12 8.72 
2 *213:12 *1127:A 2.395 
3 *213:12 *1128:B1 5.53 
*END

*D_NET *214 0.000737931
*CONN
*I *1132:D I *D sky130_fd_sc_hd__dfrtp_1
*I *1131:X O *D sky130_fd_sc_hd__a21bo_1
*CAP
1 *1132:D 0.000322824
2 *1131:X 0.000322824
3 *1132:D *298:294 1.82563e-05
4 *213:12 *1132:D 7.4027e-05
*RES
1 *1131:X *1132:D 12.48 
*END

*D_NET *215 0.00177225
*CONN
*I *1138:A1 I *D sky130_fd_sc_hd__a21bo_1
*I *1137:A I *D sky130_fd_sc_hd__xnor2_1
*I *1133:Q O *D sky130_fd_sc_hd__dfrtp_1
*CAP
1 *1138:A1 1.86412e-05
2 *1137:A 9.49773e-05
3 *1133:Q 0.000284116
4 *215:10 0.000397734
5 *1137:A *1224:A 0.000118513
6 *1137:A *217:10 4.43871e-06
7 *1138:A1 *1138:A2 0.000124895
8 *215:10 *1135:A1 0.000390466
9 *215:10 *1139:D 0
10 *215:10 *1139:RESET_B 3.90988e-05
11 *215:10 *217:10 8.78813e-05
12 *215:10 *218:12 8.65961e-05
13 *40:39 *1138:A1 0.000124895
*RES
1 *1133:Q *215:10 9.735 
2 *215:10 *1137:A 5.49 
3 *215:10 *1138:A1 4.74 
*END

*D_NET *216 0.00145881
*CONN
*I *1133:D I *D sky130_fd_sc_hd__dfrtp_1
*I *1130:Y O *D sky130_fd_sc_hd__xnor2_1
*CAP
1 *1133:D 0.000641565
2 *1130:Y 0.000641565
3 *1133:D *1132:RESET_B 0.000122797
4 *1133:CLK *1133:D 5.2888e-05
5 *40:16 *1133:D 0
*RES
1 *1130:Y *1133:D 15.96 
*END

*D_NET *217 0.000689303
*CONN
*I *1136:A I *D sky130_fd_sc_hd__nand2_1
*I *1138:B1_N I *D sky130_fd_sc_hd__a21bo_1
*I *1134:Y O *D sky130_fd_sc_hd__nand3_1
*CAP
1 *1136:A 0
2 *1138:B1_N 7.77117e-06
3 *1134:Y 0.000143986
4 *217:10 0.000151757
5 *1138:B1_N *1138:A2 4.99619e-05
6 *217:10 *1134:A 2.04147e-05
7 *217:10 *1135:A1 6.74079e-05
8 *217:10 *1135:B1 2.15738e-05
9 *217:10 *1139:D 0
10 *217:10 *218:12 7.63204e-05
11 *217:10 *298:294 9.50342e-06
12 *1137:A *217:10 4.43871e-06
13 *40:39 *1138:B1_N 4.82863e-05
14 *215:10 *217:10 8.78813e-05
*RES
1 *1134:Y *217:10 9.275 
2 *217:10 *1138:B1_N 2.05 
3 *217:10 *1136:A 1.6 
*END

*D_NET *218 0.00116451
*CONN
*I *1136:B I *D sky130_fd_sc_hd__nand2_1
*I *1138:A2 I *D sky130_fd_sc_hd__a21bo_1
*I *1135:X O *D sky130_fd_sc_hd__a21o_1
*CAP
1 *1136:B 0
2 *1138:A2 0.000130838
3 *1135:X 0.000141179
4 *218:12 0.000272017
5 *1138:A2 *1224:A 0.000198934
6 *1138:A1 *1138:A2 0.000124895
7 *1138:B1_N *1138:A2 4.99619e-05
8 *40:39 *1138:A2 8.37705e-05
9 *215:10 *218:12 8.65961e-05
10 *217:10 *218:12 7.63204e-05
*RES
1 *1135:X *218:12 8.03 
2 *218:12 *1138:A2 5.185 
3 *218:12 *1136:B 1.6 
*END

*D_NET *219 0.000446511
*CONN
*I *1137:B I *D sky130_fd_sc_hd__xnor2_1
*I *1136:Y O *D sky130_fd_sc_hd__nand2_1
*CAP
1 *1137:B 0.000153289
2 *1136:Y 0.000153289
3 *1137:B *1224:A 0.000139933
*RES
1 *1136:Y *1137:B 9.975 
*END

*D_NET *220 0.000764651
*CONN
*I *1134:A I *D sky130_fd_sc_hd__nand3_1
*I *1135:B1 I *D sky130_fd_sc_hd__a21o_1
*I *1139:Q O *D sky130_fd_sc_hd__dfrtp_1
*CAP
1 *1134:A 0.000129924
2 *1135:B1 4.7431e-05
3 *1139:Q 0
4 *220:6 0.000177355
5 *1134:A *1134:C 4.82863e-05
6 *1134:A *1135:A2 0
7 *1134:A *298:294 2.59981e-05
8 *1134:A *298:309 4.21973e-05
9 *1135:B1 *1135:A1 0.00012657
10 *1135:B1 *1135:A2 0
11 *1135:B1 *1139:RESET_B 0.0001249
12 *217:10 *1134:A 2.04147e-05
13 *217:10 *1135:B1 2.15738e-05
*RES
1 *1139:Q *220:6 3.6 
2 *220:6 *1135:B1 5.355 
3 *220:6 *1134:A 6.12 
*END

*D_NET *221 0.000424133
*CONN
*I *1139:D I *D sky130_fd_sc_hd__dfrtp_1
*I *1138:X O *D sky130_fd_sc_hd__a21bo_1
*CAP
1 *1139:D 0.000212066
2 *1138:X 0.000212066
3 *40:39 *1139:D 0
4 *215:10 *1139:D 0
5 *217:10 *1139:D 0
*RES
1 *1138:X *1139:D 10.41 
*END

*D_NET *222 0.00228718
*CONN
*I *1140:D I *D sky130_fd_sc_hd__dfrtp_1
*I *1137:Y O *D sky130_fd_sc_hd__xnor2_1
*CAP
1 *1140:D 0.000795106
2 *1137:Y 0.000795106
3 *1140:D *1140:RESET_B 0.000318639
4 *1140:D *297:357 8.73389e-06
5 *1041:CLK *1140:D 1.87038e-05
6 *1041:D *1140:D 5.83121e-06
7 *1140:CLK *1140:D 0.000345061
*RES
1 *1137:Y *1140:D 19.02 
*END

*D_NET *223 0.000943276
*CONN
*I *1143:A I *D sky130_fd_sc_hd__nand2_1
*I *1145:B1_N I *D sky130_fd_sc_hd__a21bo_1
*I *1141:Y O *D sky130_fd_sc_hd__nand3_1
*CAP
1 *1143:A 0
2 *1145:B1_N 9.55123e-05
3 *1141:Y 0.0001914
4 *223:10 0.000286913
5 *1145:B1_N *1142:A2 0.000113797
6 *1145:B1_N *1144:B 4.82919e-05
7 *1145:B1_N *1147:D 1.7396e-05
8 *223:10 *1141:B 3.00381e-05
9 *223:10 *1142:A2 3.59311e-05
10 *223:10 *1144:B 6.90876e-05
11 *1144:A *1145:B1_N 5.49093e-05
*RES
1 *1141:Y *223:10 5.185 
2 *223:10 *1145:B1_N 8.195 
3 *223:10 *1143:A 1.6 
*END

*D_NET *224 0.00121576
*CONN
*I *1143:B I *D sky130_fd_sc_hd__nand2_1
*I *1145:A2 I *D sky130_fd_sc_hd__a21bo_1
*I *1142:X O *D sky130_fd_sc_hd__a21o_1
*CAP
1 *1143:B 0.000102065
2 *1145:A2 0.000114546
3 *1142:X 4.33009e-05
4 *224:6 0.000259912
5 *1143:B *1141:B 2.92496e-05
6 *1143:B *1142:A2 2.16389e-05
7 *1143:B *1147:D 5.81675e-05
8 *1145:A2 *1141:B 0.000308719
9 *1145:A2 *1142:A1 2.75145e-05
10 *1145:A2 *1142:B1 0.000129119
11 *224:6 *1142:B1 3.64998e-06
12 *948:A *1143:B 6.52906e-05
13 *948:A *224:6 2.50702e-05
14 *1145:A1 *1145:A2 2.75145e-05
*RES
1 *1142:X *224:6 2.395 
2 *224:6 *1145:A2 5.17 
3 *224:6 *1143:B 7.94 
*END

*D_NET *225 0.000358252
*CONN
*I *1144:B I *D sky130_fd_sc_hd__xnor2_1
*I *1143:Y O *D sky130_fd_sc_hd__nand2_1
*CAP
1 *1144:B 4.32672e-05
2 *1143:Y 4.32672e-05
3 *1144:B *1142:A2 6.77417e-05
4 *1144:B *1147:D 8.65961e-05
5 *1145:B1_N *1144:B 4.82919e-05
6 *223:10 *1144:B 6.90876e-05
*RES
1 *1143:Y *1144:B 5.03 
*END

*D_NET *226 0.00157916
*CONN
*I *1142:B1 I *D sky130_fd_sc_hd__a21o_1
*I *1141:A I *D sky130_fd_sc_hd__nand3_1
*I *1146:Q O *D sky130_fd_sc_hd__dfrtp_1
*CAP
1 *1142:B1 0.000168559
2 *1141:A 7.1911e-05
3 *1146:Q 6.26544e-05
4 *226:6 0.000303124
5 *1141:A *1141:B 0.000116165
6 *1141:A *283:10 7.81876e-05
7 *1142:B1 *1141:B 2.06853e-05
8 *1142:B1 *1142:A1 4.82863e-05
9 *1142:B1 *1146:D 1.16578e-05
10 *226:6 *1146:D 0.000124007
11 *948:A *1142:B1 0.00038357
12 *1144:A *1141:A 9.29751e-06
13 *1145:A1 *1142:B1 4.82863e-05
14 *1145:A2 *1142:B1 0.000129119
15 *224:6 *1142:B1 3.64998e-06
*RES
1 *1146:Q *226:6 2.74 
2 *226:6 *1141:A 7.595 
3 *226:6 *1142:B1 7.045 
*END

*D_NET *227 0.00106928
*CONN
*I *1146:D I *D sky130_fd_sc_hd__dfrtp_1
*I *1145:X O *D sky130_fd_sc_hd__a21bo_1
*CAP
1 *1146:D 0.000309232
2 *1145:X 0.000309232
3 *1146:D *1146:RESET_B 4.95629e-05
4 *948:A *1146:D 0.000235552
5 *1142:B1 *1146:D 1.16578e-05
6 *1146:CLK *1146:D 3.00381e-05
7 *226:6 *1146:D 0.000124007
*RES
1 *1145:X *1146:D 9.86 
*END

*D_NET *228 0.0016814
*CONN
*I *1151:A I *D sky130_fd_sc_hd__xnor2_1
*I *1152:A1 I *D sky130_fd_sc_hd__a21bo_1
*I *1147:Q O *D sky130_fd_sc_hd__dfrtp_1
*CAP
1 *1151:A 0.000422784
2 *1152:A1 0.000168341
3 *1147:Q 0
4 *228:4 0.000591125
5 *1151:A *1147:RESET_B 0
6 *1151:A *1150:A 0
7 *1151:A *1152:A2 0
8 *1151:A *297:76 1.71034e-05
9 *1152:A1 *1150:A 4.99619e-05
10 *1152:A1 *1151:B 3.23955e-05
11 *1152:A1 *1152:A2 7.67345e-05
12 *1152:A1 *230:12 4.82919e-05
13 *1152:A1 *297:76 0.000274659
*RES
1 *1147:Q *228:4 1.6 
2 *228:4 *1152:A1 5.86 
3 *228:4 *1151:A 10.97 
*END

*D_NET *229 0.00132121
*CONN
*I *1147:D I *D sky130_fd_sc_hd__dfrtp_1
*I *1144:Y O *D sky130_fd_sc_hd__xnor2_1
*CAP
1 *1147:D 0.000555377
2 *1144:Y 0.000555377
3 *1147:D *1142:A2 4.82919e-05
4 *948:A *1147:D 0
5 *1143:B *1147:D 5.81675e-05
6 *1144:B *1147:D 8.65961e-05
7 *1145:B1_N *1147:D 1.7396e-05
*RES
1 *1144:Y *1147:D 16.86 
*END

*D_NET *230 0.000880605
*CONN
*I *1150:A I *D sky130_fd_sc_hd__nand2_1
*I *1152:B1_N I *D sky130_fd_sc_hd__a21bo_1
*I *1148:Y O *D sky130_fd_sc_hd__nand3_1
*CAP
1 *1150:A 2.49279e-05
2 *1152:B1_N 0
3 *1148:Y 0.000108292
4 *230:12 0.00013322
5 *1150:A *1152:A2 2.84447e-05
6 *230:12 *1148:C 7.23602e-05
7 *230:12 *1152:A2 3.00381e-05
8 *230:12 *231:12 0
9 *230:12 *297:76 7.23533e-05
10 *230:12 *297:88 6.85516e-05
11 *230:12 *297:97 0.000108322
12 *230:12 *298:429 0.000135842
13 *1151:A *1150:A 0
14 *1152:A1 *1150:A 4.99619e-05
15 *1152:A1 *230:12 4.82919e-05
*RES
1 *1148:Y *230:12 9.47 
2 *230:12 *1152:B1_N 1.6 
3 *230:12 *1150:A 2.41 
*END

*D_NET *231 0.00101346
*CONN
*I *1150:B I *D sky130_fd_sc_hd__nand2_1
*I *1152:A2 I *D sky130_fd_sc_hd__a21bo_1
*I *1149:X O *D sky130_fd_sc_hd__a21o_1
*CAP
1 *1150:B 0
2 *1152:A2 0.000189003
3 *1149:X 0.000150511
4 *231:12 0.000339514
5 *1152:A2 *1151:B 4.99619e-05
6 *231:12 *281:12 7.36484e-05
7 *231:12 *297:76 2.46089e-05
8 *231:12 *297:88 2.97004e-06
9 *231:12 *298:429 0
10 *231:12 *298:439 4.80285e-05
11 *1150:A *1152:A2 2.84447e-05
12 *1151:A *1152:A2 0
13 *1152:A1 *1152:A2 7.67345e-05
14 *230:12 *1152:A2 3.00381e-05
15 *230:12 *231:12 0
*RES
1 *1149:X *231:12 8.03 
2 *231:12 *1152:A2 5.185 
3 *231:12 *1150:B 1.6 
*END

*D_NET *232 0.0010962
*CONN
*I *1151:B I *D sky130_fd_sc_hd__xnor2_1
*I *1150:Y O *D sky130_fd_sc_hd__nand2_1
*CAP
1 *1151:B 0.000309579
2 *1150:Y 0.000309579
3 *1151:B *280:12 7.44453e-05
4 *1151:B *281:12 0.000139238
5 *1152:A1 *1151:B 3.23955e-05
6 *1152:A2 *1151:B 4.99619e-05
7 *45:92 *1151:B 0.000181005
*RES
1 *1150:Y *1151:B 13.185 
*END

*D_NET *233 0.000783408
*CONN
*I *1148:A I *D sky130_fd_sc_hd__nand3_1
*I *1149:B1 I *D sky130_fd_sc_hd__a21o_1
*I *1153:Q O *D sky130_fd_sc_hd__dfrtp_1
*CAP
1 *1148:A 0.000116482
2 *1149:B1 7.68322e-05
3 *1153:Q 0
4 *233:4 0.000193314
5 *1148:A *1148:B 0.000124895
6 *1148:A *281:12 0.000116158
7 *1148:A *297:97 0
8 *1149:B1 *298:439 0.000155726
*RES
1 *1153:Q *233:4 1.6 
2 *233:4 *1149:B1 3.355 
3 *233:4 *1148:A 8.12 
*END

*D_NET *234 0.000481609
*CONN
*I *1153:D I *D sky130_fd_sc_hd__dfrtp_1
*I *1152:X O *D sky130_fd_sc_hd__a21bo_1
*CAP
1 *1153:D 0.000160879
2 *1152:X 0.000160879
3 *1153:D *1182:RESET_B 0.00011577
4 *1153:D *279:10 4.40812e-05
5 *1153:D *298:429 0
*RES
1 *1152:X *1153:D 10.41 
*END

*D_NET *235 0.00111867
*CONN
*I *1159:A1 I *D sky130_fd_sc_hd__a21bo_1
*I *1158:A I *D sky130_fd_sc_hd__xnor2_1
*I *1154:Q O *D sky130_fd_sc_hd__dfrtp_1
*CAP
1 *1159:A1 5.3736e-05
2 *1158:A 0.000199088
3 *1154:Q 4.39638e-05
4 *235:8 0.000296787
5 *1158:A *1161:D 7.00889e-06
6 *1158:A *238:12 4.9253e-06
7 *1158:A *280:14 0.000209179
8 *1159:A1 *297:56 0.000122325
9 *235:8 *1159:B1_N 7.4027e-05
10 *235:8 *280:14 0.000107634
11 *235:8 *297:56 0
*RES
1 *1154:Q *235:8 4.98 
2 *235:8 *1158:A 7.485 
3 *235:8 *1159:A1 4.74 
*END

*D_NET *236 0.000448237
*CONN
*I *1154:D I *D sky130_fd_sc_hd__dfrtp_1
*I *1151:Y O *D sky130_fd_sc_hd__xnor2_1
*CAP
1 *1154:D 0.000162056
2 *1151:Y 0.000162056
3 *1154:CLK *1154:D 5.72004e-05
4 *45:92 *1154:D 6.6925e-05
*RES
1 *1151:Y *1154:D 10.32 
*END

*D_NET *237 0.000867105
*CONN
*I *1159:B1_N I *D sky130_fd_sc_hd__a21bo_1
*I *1157:A I *D sky130_fd_sc_hd__nand2_1
*I *1155:Y O *D sky130_fd_sc_hd__nand3_1
*CAP
1 *1159:B1_N 0.000168564
2 *1157:A 0
3 *1155:Y 9.82148e-05
4 *237:8 0.000266779
5 *1159:B1_N *280:14 2.4997e-05
6 *1159:B1_N *281:14 0.000124895
7 *1159:B1_N *297:56 4.70343e-05
8 *237:8 *1155:A 2.46087e-05
9 *237:8 *281:14 3.79854e-05
10 *235:8 *1159:B1_N 7.4027e-05
*RES
1 *1155:Y *237:8 3.355 
2 *237:8 *1157:A 1.6 
3 *237:8 *1159:B1_N 9.155 
*END

*D_NET *238 0.00115998
*CONN
*I *1159:A2 I *D sky130_fd_sc_hd__a21bo_1
*I *1157:B I *D sky130_fd_sc_hd__nand2_1
*I *1156:X O *D sky130_fd_sc_hd__a21o_1
*CAP
1 *1159:A2 0
2 *1157:B 0.000114971
3 *1156:X 0.000155464
4 *238:12 0.000270435
5 *1157:B *1158:B 3.50033e-05
6 *1157:B *1160:D 4.66108e-05
7 *1157:B *1160:RESET_B 4.66108e-05
8 *1157:B *280:14 0
9 *1157:B *281:12 0
10 *1157:B *297:44 5.16418e-05
11 *1157:B *297:56 7.14699e-05
12 *238:12 *1158:B 0.000139933
13 *238:12 *280:14 5.51158e-05
14 *1158:A *238:12 4.9253e-06
15 *45:10 *1157:B 0.000116165
16 *45:16 *1157:B 5.16348e-05
*RES
1 *1156:X *238:12 8.375 
2 *238:12 *1157:B 8.63 
3 *238:12 *1159:A2 1.6 
*END

*D_NET *239 0.000592666
*CONN
*I *1158:B I *D sky130_fd_sc_hd__xnor2_1
*I *1157:Y O *D sky130_fd_sc_hd__nand2_1
*CAP
1 *1158:B 0.000128904
2 *1157:Y 0.000128904
3 *1158:B *280:14 0
4 *1158:B *297:44 0.000159922
5 *1157:B *1158:B 3.50033e-05
6 *238:12 *1158:B 0.000139933
*RES
1 *1157:Y *1158:B 10.62 
*END

*D_NET *240 0.00128824
*CONN
*I *1155:A I *D sky130_fd_sc_hd__nand3_1
*I *1156:B1 I *D sky130_fd_sc_hd__a21o_1
*I *1160:Q O *D sky130_fd_sc_hd__dfrtp_1
*CAP
1 *1155:A 0.000118368
2 *1156:B1 3.3769e-05
3 *1160:Q 7.03287e-05
4 *240:8 0.000222466
5 *1155:A *1156:A1 0.000200089
6 *1155:A *281:14 2.49909e-05
7 *1155:A *298:403 8.08153e-06
8 *1155:A *298:429 1.22762e-05
9 *1156:B1 *1156:A1 0.000141606
10 *240:8 *1160:D 4.41506e-05
11 *45:10 *1155:A 0.000129047
12 *45:16 *1155:A 0.00011686
13 *45:16 *1156:B1 0.000141592
14 *237:8 *1155:A 2.46087e-05
*RES
1 *1160:Q *240:8 4.395 
2 *240:8 *1156:B1 5.235 
3 *240:8 *1155:A 7.32 
*END

*D_NET *241 0.000948647
*CONN
*I *1160:D I *D sky130_fd_sc_hd__dfrtp_1
*I *1159:X O *D sky130_fd_sc_hd__a21bo_1
*CAP
1 *1160:D 0.000296004
2 *1159:X 0.000296004
3 *1160:D *1160:RESET_B 5.45635e-05
4 *1157:B *1160:D 4.66108e-05
5 *1160:CLK *1160:D 3.00381e-05
6 *45:55 *1160:D 0.000181277
7 *240:8 *1160:D 4.41506e-05
*RES
1 *1159:X *1160:D 9.17 
*END

*D_NET *242 0.00308885
*CONN
*I *1165:A I *D sky130_fd_sc_hd__xnor2_1
*I *1166:A1 I *D sky130_fd_sc_hd__a21bo_1
*I *1161:Q O *D sky130_fd_sc_hd__dfrtp_1
*CAP
1 *1165:A 0
2 *1166:A1 0.000261795
3 *1161:Q 0.000629037
4 *242:12 0.000890832
5 *1166:A1 *1162:C 0.000187486
6 *1166:A1 *1166:A2 0.000179669
7 *1166:A1 *1166:B1_N 5.16418e-05
8 *1166:A1 *1167:RESET_B 0.000149662
9 *1166:A1 *249:18 3.23663e-05
10 *242:12 *1161:RESET_B 0.000384631
11 *242:12 *1162:B 0.000116853
12 *242:12 *1165:B 0.000118527
13 *1167:CLK *1166:A1 8.63479e-05
*RES
1 *1161:Q *242:12 14.33 
2 *242:12 *1166:A1 11.96 
3 *242:12 *1165:A 1.6 
*END

*D_NET *243 0.000648936
*CONN
*I *1161:D I *D sky130_fd_sc_hd__dfrtp_1
*I *1158:Y O *D sky130_fd_sc_hd__xnor2_1
*CAP
1 *1161:D 0.000320963
2 *1158:Y 0.000320963
3 *1161:D *280:14 0
4 *1158:A *1161:D 7.00889e-06
*RES
1 *1158:Y *1161:D 11.76 
*END

*D_NET *244 0.00141629
*CONN
*I *1164:A I *D sky130_fd_sc_hd__nand2_1
*I *1166:B1_N I *D sky130_fd_sc_hd__a21bo_1
*I *1162:Y O *D sky130_fd_sc_hd__nand3_1
*CAP
1 *1164:A 0.000189276
2 *1166:B1_N 0.000112064
3 *1162:Y 0
4 *244:4 0.00030134
5 *1164:A *1161:RESET_B 4.82919e-05
6 *1164:A *1162:B 5.43042e-05
7 *1164:A *1165:B 0.000139245
8 *1164:A *249:18 8.53113e-06
9 *1164:A *297:10 0.000137571
10 *1164:A *297:20 0.000116165
11 *1164:A *297:44 5.16348e-05
12 *1166:B1_N *1162:A 1.26548e-05
13 *1166:B1_N *1162:B 1.34594e-05
14 *1166:B1_N *1162:C 9.27255e-06
15 *1166:B1_N *1166:A2 7.58604e-05
16 *1161:CLK *1164:A 4.82919e-05
17 *1166:A1 *1166:B1_N 5.16418e-05
18 *1168:CLK *1164:A 4.08514e-05
19 *1168:CLK *1166:B1_N 5.83121e-06
*RES
1 *1162:Y *244:4 1.6 
2 *244:4 *1166:B1_N 7.355 
3 *244:4 *1164:A 10.265 
*END

*D_NET *245 0.00142707
*CONN
*I *1164:B I *D sky130_fd_sc_hd__nand2_1
*I *1166:A2 I *D sky130_fd_sc_hd__a21bo_1
*I *1163:X O *D sky130_fd_sc_hd__a21o_1
*CAP
1 *1164:B 4.5997e-05
2 *1166:A2 0.000294629
3 *1163:X 0
4 *245:4 0.000340626
5 *1164:B *1161:RESET_B 4.35648e-05
6 *1164:B *1163:A1 4.00541e-06
7 *1166:A2 *1162:A 0.0002014
8 *1166:A2 *1162:C 8.74652e-05
9 *1166:A2 *1163:A1 6.07575e-06
10 *1166:A2 *1163:B1 8.78408e-05
11 *1166:A2 *249:18 1.33293e-05
12 *1161:CLK *1164:B 4.66108e-05
13 *1166:A1 *1166:A2 0.000179669
14 *1166:B1_N *1166:A2 7.58604e-05
*RES
1 *1163:X *245:4 1.6 
2 *245:4 *1166:A2 12.095 
3 *245:4 *1164:B 2.665 
*END

*D_NET *246 0.000345347
*CONN
*I *1165:B I *D sky130_fd_sc_hd__xnor2_1
*I *1164:Y O *D sky130_fd_sc_hd__nand2_1
*CAP
1 *1165:B 3.746e-05
2 *1164:Y 3.746e-05
3 *1165:B *1162:B 1.26548e-05
4 *1164:A *1165:B 0.000139245
5 *242:12 *1165:B 0.000118527
*RES
1 *1164:Y *1165:B 8.835 
*END

*D_NET *247 0.00123077
*CONN
*I *1163:B1 I *D sky130_fd_sc_hd__a21o_1
*I *1162:A I *D sky130_fd_sc_hd__nand3_1
*I *1167:Q O *D sky130_fd_sc_hd__dfrtp_1
*CAP
1 *1163:B1 6.50915e-05
2 *1162:A 0.000117915
3 *1167:Q 7.03287e-05
4 *247:8 0.000253335
5 *1162:A *1162:C 0
6 *1162:A *297:10 1.15688e-05
7 *1163:B1 *1162:C 0
8 *1163:B1 *1163:A1 2.75145e-05
9 *247:8 *1167:RESET_B 4.41506e-05
10 *1166:A2 *1162:A 0.0002014
11 *1166:A2 *1163:B1 8.78408e-05
12 *1166:B1_N *1162:A 1.26548e-05
13 *1168:CLK *1162:A 0.000116151
14 *45:18 *1162:A 0.000108329
15 *45:18 *1163:B1 0.000114492
*RES
1 *1167:Q *247:8 4.395 
2 *247:8 *1162:A 6.96 
3 *247:8 *1163:B1 5.43 
*END

*D_NET *248 0.000496611
*CONN
*I *1167:D I *D sky130_fd_sc_hd__dfrtp_1
*I *1166:X O *D sky130_fd_sc_hd__a21bo_1
*CAP
1 *1167:D 0.000138927
2 *1166:X 0.000138927
3 *1167:D *1162:C 0
4 *1167:D *279:16 9.91257e-05
5 *1167:CLK *1167:D 0.000119631
*RES
1 *1166:X *1167:D 10.41 
*END

*D_NET *249 0.00496095
*CONN
*I *1172:A I *D sky130_fd_sc_hd__xnor2_1
*I *1173:A1 I *D sky130_fd_sc_hd__a21bo_1
*I *1168:Q O *D sky130_fd_sc_hd__dfrtp_1
*CAP
1 *1172:A 0.000159552
2 *1173:A1 0
3 *1168:Q 0.00192054
4 *249:18 0.00208009
5 *1172:A *1174:RESET_B 7.45881e-05
6 *249:18 *1162:B 5.41248e-05
7 *249:18 *1162:C 0.000239807
8 *249:18 *1168:RESET_B 0.000171783
9 *249:18 *1174:D 0
10 *249:18 *1174:RESET_B 8.97832e-05
11 *249:18 *297:8 1.07797e-05
12 *249:18 *297:10 3.59544e-05
13 *1164:A *249:18 8.53113e-06
14 *1166:A1 *249:18 3.23663e-05
15 *1166:A2 *249:18 1.33293e-05
16 *1168:CLK *249:18 6.97202e-05
*RES
1 *1168:Q *249:18 32.2 
2 *249:18 *1173:A1 3.6 
3 *249:18 *1172:A 6.54 
*END

*D_NET *250 0.000337292
*CONN
*I *1168:D I *D sky130_fd_sc_hd__dfrtp_1
*I *1165:Y O *D sky130_fd_sc_hd__xnor2_1
*CAP
1 *1168:D 0.000168646
2 *1165:Y 0.000168646
3 *1168:D *1162:B 0
*RES
1 *1165:Y *1168:D 9.375 
*END

*D_NET *251 0.000909044
*CONN
*I *1171:A I *D sky130_fd_sc_hd__nand2_1
*I *1173:B1_N I *D sky130_fd_sc_hd__a21bo_1
*I *1169:Y O *D sky130_fd_sc_hd__nand3_1
*CAP
1 *1171:A 0.00012821
2 *1173:B1_N 9.01067e-05
3 *1169:Y 0.000106859
4 *251:6 0.000325176
5 *1171:A *1171:B 6.55328e-05
6 *1171:A *1174:RESET_B 0
7 *1171:A *254:10 5.4003e-05
8 *1171:A *298:496 0
9 *1173:B1_N *1170:A2 0
10 *1173:B1_N *1173:A2 3.00381e-05
11 *1173:B1_N *252:6 1.33293e-05
12 *251:6 *1169:A 4.58257e-05
13 *251:6 *1170:A2 4.99619e-05
*RES
1 *1169:Y *251:6 3.43 
2 *251:6 *1173:B1_N 3.1 
3 *251:6 *1171:A 8 
*END

*D_NET *252 0.000689358
*CONN
*I *1171:B I *D sky130_fd_sc_hd__nand2_1
*I *1173:A2 I *D sky130_fd_sc_hd__a21bo_1
*I *1170:X O *D sky130_fd_sc_hd__a21o_1
*CAP
1 *1171:B 4.33073e-05
2 *1173:A2 0.000173028
3 *1170:X 3.33231e-05
4 *252:6 0.000249659
5 *1171:B *1174:RESET_B 6.74079e-05
6 *1173:A2 *1169:A 1.37328e-05
7 *1171:A *1171:B 6.55328e-05
8 *1173:B1_N *1173:A2 3.00381e-05
9 *1173:B1_N *252:6 1.33293e-05
*RES
1 *1170:X *252:6 2.05 
2 *252:6 *1173:A2 4.39 
3 *252:6 *1171:B 6.98 
*END

*D_NET *253 0.000165224
*CONN
*I *1172:B I *D sky130_fd_sc_hd__xnor2_1
*I *1171:Y O *D sky130_fd_sc_hd__nand2_1
*CAP
1 *1172:B 8.26119e-05
2 *1171:Y 8.26119e-05
*RES
1 *1171:Y *1172:B 4.34 
*END

*D_NET *254 0.000601404
*CONN
*I *1169:A I *D sky130_fd_sc_hd__nand3_1
*I *1170:B1 I *D sky130_fd_sc_hd__a21o_1
*I *1174:Q O *D sky130_fd_sc_hd__dfrtp_1
*CAP
1 *1169:A 7.37004e-05
2 *1170:B1 0
3 *1174:Q 9.75293e-05
4 *254:10 0.00017123
5 *1169:A *1170:A1 9.78003e-05
6 *1169:A *1170:A2 4.75832e-05
7 *254:10 *1174:RESET_B 0
8 *254:10 *298:496 0
9 *1171:A *254:10 5.4003e-05
10 *1173:A2 *1169:A 1.37328e-05
11 *251:6 *1169:A 4.58257e-05
*RES
1 *1174:Q *254:10 7.235 
2 *254:10 *1170:B1 1.6 
3 *254:10 *1169:A 3.805 
*END

*D_NET *255 0.000519879
*CONN
*I *1174:D I *D sky130_fd_sc_hd__dfrtp_1
*I *1173:X O *D sky130_fd_sc_hd__a21bo_1
*CAP
1 *1174:D 0.00023538
2 *1173:X 0.00023538
3 *1174:CLK *1174:D 4.91189e-05
4 *249:18 *1174:D 0
*RES
1 *1173:X *1174:D 10.41 
*END

*D_NET *256 0.0028482
*CONN
*I *1179:A I *D sky130_fd_sc_hd__xnor2_1
*I *1180:A1 I *D sky130_fd_sc_hd__a21bo_1
*I *1175:Q O *D sky130_fd_sc_hd__dfrtp_1
*CAP
1 *1179:A 0.000306944
2 *1180:A1 0.000225988
3 *1175:Q 8.4279e-05
4 *256:10 0.000617211
5 *1179:A *1014:RESET_B 0.000295343
6 *1179:A *1178:B 0.000177568
7 *1179:A *1179:B 0.000281718
8 *1179:A *1180:A2 0.000367688
9 *1179:A *297:425 0.000176255
10 *1180:A1 *1174:RESET_B 0.000180682
11 *1180:A1 *1175:RESET_B 1.56428e-05
12 *1180:A1 *1180:A2 8.65905e-05
13 *1180:A1 *1181:D 0
14 *1180:A1 *297:425 2.14129e-05
15 *256:10 *1176:A 1.08758e-05
16 *953:A *1179:A 0
17 *1182:CLK *1179:A 0
18 *39:51 *1179:A 0
19 *44:85 *1179:A 0
*RES
1 *1175:Q *256:10 2.86 
2 *256:10 *1180:A1 9.935 
3 *256:10 *1179:A 15.995 
*END

*D_NET *257 0.000865412
*CONN
*I *1175:D I *D sky130_fd_sc_hd__dfrtp_1
*I *1172:Y O *D sky130_fd_sc_hd__xnor2_1
*CAP
1 *1175:D 0.0003423
2 *1172:Y 0.0003423
3 *1175:D *1181:D 3.39151e-05
4 *44:16 *1175:D 6.7929e-05
5 *44:18 *1175:D 7.89689e-05
*RES
1 *1172:Y *1175:D 13.14 
*END

*D_NET *258 0.00203196
*CONN
*I *1178:A I *D sky130_fd_sc_hd__nand2_1
*I *1180:B1_N I *D sky130_fd_sc_hd__a21bo_1
*I *1176:Y O *D sky130_fd_sc_hd__nand3_1
*CAP
1 *1178:A 0.000302051
2 *1180:B1_N 0.000141895
3 *1176:Y 0
4 *258:6 0.000443946
5 *1178:A *1176:A 0.000319167
6 *1178:A *1176:B 0.000344608
7 *1178:A *1178:B 0.00013883
8 *1178:A *1180:A2 5.97727e-05
9 *1178:A *298:390 1.43521e-05
10 *1180:B1_N *1180:A2 3.86607e-05
11 *1180:B1_N *298:384 0.000162311
12 *1180:B1_N *298:390 2.67022e-05
13 *953:A *1178:A 0
14 *39:70 *1178:A 3.96653e-05
*RES
1 *1176:Y *258:6 3.6 
2 *258:6 *1180:B1_N 5.955 
3 *258:6 *1178:A 11.835 
*END

*D_NET *259 0.0023638
*CONN
*I *1178:B I *D sky130_fd_sc_hd__nand2_1
*I *1180:A2 I *D sky130_fd_sc_hd__a21bo_1
*I *1177:X O *D sky130_fd_sc_hd__a21o_1
*CAP
1 *1178:B 6.6463e-05
2 *1180:A2 0.000250162
3 *1177:X 5.0143e-05
4 *259:8 0.000366768
5 *1180:A2 *1174:RESET_B 6.14689e-05
6 *1180:A2 *1176:A 0.000320834
7 *1180:A2 *297:425 9.29751e-06
8 *1180:A2 *298:384 0.000272978
9 *259:8 *1177:B1 4.82863e-05
10 *1178:A *1178:B 0.00013883
11 *1178:A *1180:A2 5.97727e-05
12 *1179:A *1178:B 0.000177568
13 *1179:A *1180:A2 0.000367688
14 *1180:A1 *1180:A2 8.65905e-05
15 *1180:B1_N *1180:A2 3.86607e-05
16 *39:70 *1178:B 4.82919e-05
*RES
1 *1177:X *259:8 4.395 
2 *259:8 *1180:A2 12.345 
3 *259:8 *1178:B 6.195 
*END

*D_NET *260 0.000609885
*CONN
*I *1179:B I *D sky130_fd_sc_hd__xnor2_1
*I *1178:Y O *D sky130_fd_sc_hd__nand2_1
*CAP
1 *1179:B 0.000164083
2 *1178:Y 0.000164083
3 *1179:A *1179:B 0.000281718
4 *1182:CLK *1179:B 0
5 *39:51 *1179:B 0
*RES
1 *1178:Y *1179:B 10.665 
*END

*D_NET *261 0.00120247
*CONN
*I *1177:B1 I *D sky130_fd_sc_hd__a21o_1
*I *1176:A I *D sky130_fd_sc_hd__nand3_1
*I *1181:Q O *D sky130_fd_sc_hd__dfrtp_1
*CAP
1 *1177:B1 9.79013e-05
2 *1176:A 0.000129604
3 *1181:Q 0
4 *261:4 0.000227506
5 *1177:B1 *1176:B 4.82919e-05
6 *1178:A *1176:A 0.000319167
7 *1180:A2 *1176:A 0.000320834
8 *256:10 *1176:A 1.08758e-05
9 *259:8 *1177:B1 4.82863e-05
*RES
1 *1181:Q *261:4 1.6 
2 *261:4 *1176:A 9.725 
3 *261:4 *1177:B1 3.355 
*END

*D_NET *262 0.00113786
*CONN
*I *1181:D I *D sky130_fd_sc_hd__dfrtp_1
*I *1180:X O *D sky130_fd_sc_hd__a21bo_1
*CAP
1 *1181:D 0.000488688
2 *1180:X 0.000488688
3 *1181:D *297:425 0
4 *1181:D *298:384 0.00012657
5 *1175:D *1181:D 3.39151e-05
6 *1180:A1 *1181:D 0
7 *44:10 *1181:D 0
8 *44:16 *1181:D 0
9 *44:54 *1181:D 0
*RES
1 *1180:X *1181:D 14.685 
*END

*D_NET *263 0.00210187
*CONN
*I *1187:A1 I *D sky130_fd_sc_hd__a21bo_1
*I *1186:A I *D sky130_fd_sc_hd__xnor2_1
*I *1182:Q O *D sky130_fd_sc_hd__dfrtp_1
*CAP
1 *1187:A1 0.000319375
2 *1186:A 5.92856e-05
3 *1182:Q 0.000267748
4 *263:8 0.000646408
5 *1186:A *1186:B 8.65961e-05
6 *1187:A1 *1185:A 8.34281e-06
7 *1187:A1 *1185:B 0.00015896
8 *1187:A1 *1186:B 8.49205e-05
9 *1187:A1 *1187:A2 0.000128956
10 *1187:A1 *278:14 2.23407e-05
11 *263:8 *278:14 0.000309435
12 *263:8 *279:10 0
13 *1153:CLK *263:8 9.50342e-06
*RES
1 *1182:Q *263:8 9.825 
2 *263:8 *1186:A 4.74 
3 *263:8 *1187:A1 9.18 
*END

*D_NET *264 0.000244262
*CONN
*I *1182:D I *D sky130_fd_sc_hd__dfrtp_1
*I *1179:Y O *D sky130_fd_sc_hd__xnor2_1
*CAP
1 *1182:D 0.000122131
2 *1179:Y 0.000122131
3 *1182:CLK *1182:D 0
*RES
1 *1179:Y *1182:D 9.03 
*END

*D_NET *265 0.000932427
*CONN
*I *1187:B1_N I *D sky130_fd_sc_hd__a21bo_1
*I *1185:A I *D sky130_fd_sc_hd__nand2_1
*I *1183:Y O *D sky130_fd_sc_hd__nand3_1
*CAP
1 *1187:B1_N 0
2 *1185:A 9.89183e-05
3 *1183:Y 0.000241478
4 *265:12 0.000340396
5 *1185:A *1185:B 4.24643e-05
6 *1185:A *1186:B 2.75229e-05
7 *265:12 *1183:B 2.65814e-06
8 *265:12 *1183:C 0
9 *265:12 *266:12 1.22676e-05
10 *948:A *265:12 2.15025e-05
11 *1187:A1 *1185:A 8.34281e-06
12 *39:51 *265:12 0.000136877
*RES
1 *1183:Y *265:12 9.065 
2 *265:12 *1185:A 3.46 
3 *265:12 *1187:B1_N 1.6 
*END

*D_NET *266 0.000913209
*CONN
*I *1185:B I *D sky130_fd_sc_hd__nand2_1
*I *1187:A2 I *D sky130_fd_sc_hd__a21bo_1
*I *1184:X O *D sky130_fd_sc_hd__a21o_1
*CAP
1 *1185:B 7.07118e-05
2 *1187:A2 3.29681e-05
3 *1184:X 0.00011099
4 *266:12 0.00021467
5 *266:12 *1183:C 0.000141221
6 *1185:A *1185:B 4.24643e-05
7 *1187:A1 *1185:B 0.00015896
8 *1187:A1 *1187:A2 0.000128956
9 *39:51 *266:12 0
10 *265:12 *266:12 1.22676e-05
*RES
1 *1184:X *266:12 7.685 
2 *266:12 *1187:A2 2.395 
3 *266:12 *1185:B 3.445 
*END

*D_NET *267 0.000312117
*CONN
*I *1186:B I *D sky130_fd_sc_hd__xnor2_1
*I *1185:Y O *D sky130_fd_sc_hd__nand2_1
*CAP
1 *1186:B 5.65387e-05
2 *1185:Y 5.65387e-05
3 *1185:A *1186:B 2.75229e-05
4 *1186:A *1186:B 8.65961e-05
5 *1187:A1 *1186:B 8.49205e-05
*RES
1 *1185:Y *1186:B 4.685 
*END

*D_NET *268 0.000795669
*CONN
*I *1183:A I *D sky130_fd_sc_hd__nand3_1
*I *1184:B1 I *D sky130_fd_sc_hd__a21o_1
*I *1188:Q O *D sky130_fd_sc_hd__dfrtp_1
*CAP
1 *1183:A 7.40136e-05
2 *1184:B1 0.000136588
3 *1188:Q 3.58965e-05
4 *268:8 0.000246498
5 *1183:A *1184:A1 7.89689e-05
6 *1184:B1 *1183:C 6.73496e-05
7 *1184:B1 *1184:A1 0.00012884
8 *268:8 *1188:D 2.75145e-05
*RES
1 *1188:Q *268:8 4.05 
2 *268:8 *1184:B1 6.705 
3 *268:8 *1183:A 5.235 
*END

*D_NET *269 0.000854675
*CONN
*I *1188:D I *D sky130_fd_sc_hd__dfrtp_1
*I *1187:X O *D sky130_fd_sc_hd__a21bo_1
*CAP
1 *1188:D 0.000356185
2 *1187:X 0.000356185
3 *1188:D *1188:RESET_B 0.000114789
4 *268:8 *1188:D 2.75145e-05
*RES
1 *1187:X *1188:D 9.17 
*END

*D_NET *270 0.00127423
*CONN
*I *1189:D I *D sky130_fd_sc_hd__dfrtp_1
*I *1186:Y O *D sky130_fd_sc_hd__xnor2_1
*CAP
1 *1189:D 0.000514168
2 *1186:Y 0.000514168
3 *1189:D *281:12 0
4 *1189:D *297:97 0.000245893
*RES
1 *1186:Y *1189:D 14.265 
*END

*D_NET *271 0.00763517
*CONN
*I *1134:B I *D sky130_fd_sc_hd__nand3_1
*I *1135:A1 I *D sky130_fd_sc_hd__a21o_1
*I *1190:X O *D sky130_fd_sc_hd__buf_1
*CAP
1 *1134:B 1.96054e-05
2 *1135:A1 0.000207378
3 *1190:X 0.00226735
4 *271:12 0.00050197
5 *271:8 0.00254234
6 *1134:B *1134:C 3.74161e-05
7 *1135:A1 *1139:RESET_B 0.000128283
8 *1135:A1 *298:294 1.52945e-05
9 *271:8 *1128:A1 0
10 *271:8 *274:14 0
11 *271:8 *286:12 0
12 *271:12 *1134:C 4.82863e-05
13 *1096:A1 *271:8 0
14 *1097:D *271:8 0.000117825
15 *1098:CLK *271:8 0.000105849
16 *1098:D *271:8 0.000120186
17 *1103:A1 *271:8 0
18 *1104:D *271:8 0.000120186
19 *1111:CLK *271:8 0.000400831
20 *1111:D *271:8 0
21 *1132:CLK *271:8 0.0002099
22 *1135:B1 *1135:A1 0.00012657
23 *1217:A *271:8 0
24 *42:54 *271:8 0.000208025
25 *215:10 *1135:A1 0.000390466
26 *217:10 *1135:A1 6.74079e-05
*RES
1 *1190:X *271:8 48.075 
2 *271:8 *271:12 6.245 
3 *271:12 *1135:A1 11.765 
4 *271:12 *1134:B 2.05 
*END

*D_NET *272 0.00125797
*CONN
*I *994:B I *D sky130_fd_sc_hd__nand3_1
*I *995:A1 I *D sky130_fd_sc_hd__a21o_1
*I *1191:X O *D sky130_fd_sc_hd__clkbuf_1
*CAP
1 *994:B 0
2 *995:A1 0.000179787
3 *1191:X 0.000196623
4 *272:12 0.00037641
5 *995:A1 *995:A2 1.43124e-05
6 *995:A1 *298:87 2.8585e-06
7 *995:A1 *306:14 1.65105e-05
8 *995:A1 *307:10 2.54692e-05
9 *272:12 *273:12 0
10 *272:12 *298:87 8.49205e-05
11 *272:12 *298:102 0.000201508
12 *994:A *995:A1 7.29716e-05
13 *995:B1 *995:A1 0
14 *77:12 *995:A1 8.65961e-05
*RES
1 *1191:X *272:12 9.245 
2 *272:12 *995:A1 8.99 
3 *272:12 *994:B 1.6 
*END

*D_NET *273 0.00113601
*CONN
*I *987:B I *D sky130_fd_sc_hd__nand3_1
*I *988:A1 I *D sky130_fd_sc_hd__a21o_1
*I *1192:X O *D sky130_fd_sc_hd__clkbuf_1
*CAP
1 *987:B 9.30263e-05
2 *988:A1 0
3 *1192:X 0.000266474
4 *273:12 0.0003595
5 *987:B *298:113 2.15986e-05
6 *987:B *298:122 1.31519e-05
7 *273:12 *275:16 0
8 *273:12 *298:102 0.000212979
9 *987:A *987:B 8.52545e-05
10 *987:A *273:12 8.40213e-05
11 *272:12 *273:12 0
*RES
1 *1192:X *273:12 9.335 
2 *273:12 *988:A1 1.6 
3 *273:12 *987:B 3.1 
*END

*D_NET *274 0.00798902
*CONN
*I *1127:B I *D sky130_fd_sc_hd__nand3_1
*I *1128:A1 I *D sky130_fd_sc_hd__a21o_1
*I *1193:X O *D sky130_fd_sc_hd__buf_1
*CAP
1 *1127:B 0
2 *1128:A1 0.000348718
3 *1193:X 0.00187806
4 *274:14 0.00222678
5 *1128:A1 *1127:C 0.000117133
6 *274:14 *1092:B 0.000149151
7 *274:14 *1092:C 0.000131401
8 *274:14 *1093:A2 0
9 *274:14 *1099:C 0
10 *274:14 *1100:A1 0
11 *274:14 *1106:B 0
12 *274:14 *1113:B 0
13 *274:14 *1127:C 2.51397e-05
14 *274:14 *286:12 0.00211774
15 *274:14 *289:18 0
16 *274:14 *298:10 0.000187766
17 *274:14 *298:250 0
18 *274:14 *298:275 0
19 *1095:B *274:14 0
20 *1103:B1_N *274:14 6.65066e-05
21 *1110:A1 *274:14 0
22 *1110:A2 *274:14 0
23 *1113:A *274:14 0
24 *1114:B1 *274:14 0
25 *1117:A2 *274:14 0
26 *1118:D *274:14 0
27 *1127:A *1128:A1 2.05056e-05
28 *1128:B1 *1128:A1 9.80943e-06
29 *1131:A1 *1128:A1 0.000360166
30 *1131:A2 *1128:A1 2.16833e-05
31 *1205:A *274:14 2.75229e-05
32 *1208:A *274:14 0
33 *176:10 *274:14 0.000293726
34 *190:8 *274:14 0
35 *213:12 *1128:A1 7.21296e-06
36 *271:8 *1128:A1 0
37 *271:8 *274:14 0
*RES
1 *1193:X *274:14 45.54 
2 *274:14 *1128:A1 10.02 
3 *274:14 *1127:B 3.6 
*END

*D_NET *275 0.00268469
*CONN
*I *980:B I *D sky130_fd_sc_hd__nand3_1
*I *981:A1 I *D sky130_fd_sc_hd__a21o_1
*I *1194:X O *D sky130_fd_sc_hd__clkbuf_1
*CAP
1 *980:B 8.26491e-05
2 *981:A1 1.77761e-05
3 *1194:X 0.000580233
4 *275:16 0.000680659
5 *980:B *980:C 4.31275e-05
6 *981:A1 *980:C 4.82863e-05
7 *275:16 *276:16 0.000744653
8 *981:B1 *980:B 0.000122331
9 *989:A *275:16 0.000105757
10 *64:10 *980:B 0.000122337
11 *68:10 *275:16 0
12 *73:12 *275:16 0.000136884
13 *273:12 *275:16 0
*RES
1 *1194:X *275:16 18.44 
2 *275:16 *981:A1 2.05 
3 *275:16 *980:B 3.79 
*END

*D_NET *276 0.00366769
*CONN
*I *974:A1 I *D sky130_fd_sc_hd__a21o_1
*I *973:B I *D sky130_fd_sc_hd__nand3_1
*I *1195:X O *D sky130_fd_sc_hd__buf_1
*CAP
1 *974:A1 0
2 *973:B 9.14054e-05
3 *1195:X 0.00113236
4 *276:16 0.00122377
5 *973:B *974:A2 5.90735e-05
6 *276:16 *974:A2 2.24384e-05
7 *276:16 *277:10 0
8 *276:16 *298:667 0
9 *974:B1 *276:16 4.99619e-05
10 *976:B *276:16 8.53113e-06
11 *979:D *276:16 0
12 *984:A2 *276:16 0.000198196
13 *64:10 *276:16 7.70938e-05
14 *66:12 *276:16 6.02123e-05
15 *275:16 *276:16 0.000744653
*RES
1 *1195:X *276:16 28.325 
2 *276:16 *973:B 3.1 
3 *276:16 *974:A1 1.6 
*END

*D_NET *277 0.00474996
*CONN
*I *1183:B I *D sky130_fd_sc_hd__nand3_1
*I *1184:A1 I *D sky130_fd_sc_hd__a21o_1
*I *1196:X O *D sky130_fd_sc_hd__buf_1
*CAP
1 *1183:B 1.922e-05
2 *1184:A1 0.000226018
3 *1196:X 0.00158057
4 *277:10 0.00182581
5 *1184:A1 *1183:C 0.00034445
6 *277:10 *278:14 0
7 *948:A *1183:B 4.82863e-05
8 *976:A *277:10 0
9 *976:B *277:10 0
10 *979:D *277:10 7.23533e-05
11 *983:B *277:10 2.96383e-05
12 *984:B1_N *277:10 0.000175855
13 *1125:CLK *277:10 0.00015995
14 *1183:A *1184:A1 7.89689e-05
15 *1184:B1 *1184:A1 0.00012884
16 *39:51 *1184:A1 0
17 *39:51 *277:10 0
18 *60:10 *277:10 0
19 *63:10 *277:10 5.73362e-05
20 *66:12 *277:10 0
21 *265:12 *1183:B 2.65814e-06
22 *276:16 *277:10 0
*RES
1 *1196:X *277:10 30 
2 *277:10 *1184:A1 8.67 
3 *277:10 *1183:B 4.05 
*END

*D_NET *278 0.00800866
*CONN
*I *1177:A1 I *D sky130_fd_sc_hd__a21o_1
*I *1176:B I *D sky130_fd_sc_hd__nand3_1
*I *1197:X O *D sky130_fd_sc_hd__buf_1
*CAP
1 *1177:A1 0
2 *1176:B 0.000233527
3 *1197:X 0.0017281
4 *278:14 0.00196163
5 *278:14 *1177:A2 8.40213e-05
6 *278:14 *279:10 0
7 *953:A *1176:B 0
8 *953:A *278:14 0.000252977
9 *971:CLK *278:14 0.000175901
10 *983:A *278:14 0.000155139
11 *983:B *278:14 0
12 *1153:CLK *278:14 0.000130612
13 *1177:B1 *1176:B 4.82919e-05
14 *1178:A *1176:B 0.000344608
15 *1187:A1 *278:14 2.23407e-05
16 *1197:A *278:14 7.00889e-06
17 *39:51 *278:14 0.00189487
18 *45:68 *1176:B 0
19 *45:68 *278:14 9.49203e-05
20 *47:31 *278:14 0.000366994
21 *47:40 *278:14 0.000198293
22 *263:8 *278:14 0.000309435
23 *277:10 *278:14 0
*RES
1 *1197:X *278:14 48.53 
2 *278:14 *1176:B 10.67 
3 *278:14 *1177:A1 1.6 
*END

*D_NET *279 0.00774973
*CONN
*I *1170:A1 I *D sky130_fd_sc_hd__a21o_1
*I *1169:B I *D sky130_fd_sc_hd__nand3_1
*I *1198:X O *D sky130_fd_sc_hd__buf_1
*CAP
1 *1170:A1 9.69997e-05
2 *1169:B 0
3 *1198:X 6.67805e-05
4 *279:16 0.000308197
5 *279:10 0.0030571
6 *279:8 0.00291268
7 *1170:A1 *1170:A2 1.12578e-05
8 *279:10 *967:A 0.000141592
9 *279:10 *969:A1 0.000177723
10 *279:10 *971:RESET_B 0
11 *279:10 *992:RESET_B 0
12 *279:10 *1148:C 0
13 *279:10 *1162:C 0
14 *279:10 *297:97 0
15 *279:10 *297:697 0
16 *279:10 *298:403 0
17 *279:10 *298:429 0
18 *279:10 *298:492 0
19 *279:10 *298:496 0
20 *279:16 *1170:A2 5.30673e-05
21 *967:B *279:10 0.000116577
22 *972:D *279:10 0
23 *1146:CLK *279:10 0
24 *1153:CLK *279:10 0
25 *1153:D *279:10 4.40812e-05
26 *1167:CLK *279:16 3.99879e-05
27 *1167:D *279:16 9.91257e-05
28 *1169:A *1170:A1 9.78003e-05
29 *1198:A *279:8 3.00381e-05
30 *45:16 *279:10 0
31 *45:68 *279:10 0
32 *47:12 *279:10 0.000166346
33 *47:21 *279:10 0.000167896
34 *47:25 *279:10 0.000162479
35 *47:31 *279:10 0
36 *47:40 *279:10 0
37 *47:99 *279:10 0
38 *263:8 *279:10 0
39 *278:14 *279:10 0
*RES
1 *1198:X *279:8 4.395 
2 *279:8 *279:10 49.83 
3 *279:10 *279:16 5.915 
4 *279:16 *1169:B 1.6 
5 *279:16 *1170:A1 3.1 
*END

*D_NET *280 0.00993403
*CONN
*I *1163:A1 I *D sky130_fd_sc_hd__a21o_1
*I *1162:B I *D sky130_fd_sc_hd__nand3_1
*I *1199:X O *D sky130_fd_sc_hd__buf_1
*CAP
1 *1163:A1 0.000229895
2 *1162:B 0.000292135
3 *1199:X 0.00158854
4 *280:14 0.000942662
5 *280:12 0.00200917
6 *1162:B *1162:C 8.65905e-05
7 *1162:B *1168:RESET_B 0.000122331
8 *280:12 *1142:A2 5.37442e-05
9 *280:12 *1147:RESET_B 9.5591e-05
10 *280:12 *281:12 0.00125659
11 *280:12 *283:10 0.000508306
12 *280:12 *297:649 0.000144282
13 *280:12 *297:661 0.000260156
14 *280:12 *298:443 0.000282563
15 *280:14 *1147:RESET_B 0
16 *280:14 *281:12 0.000150785
17 *280:14 *297:44 0
18 *1048:D *280:12 9.30787e-05
19 *1122:A *280:12 0.000249227
20 *1122:B *280:12 0.000206123
21 *1151:B *280:12 7.44453e-05
22 *1157:B *280:14 0
23 *1158:A *280:14 0.000209179
24 *1158:B *280:14 0
25 *1159:B1_N *280:14 2.4997e-05
26 *1161:CLK *1163:A1 0.000197264
27 *1161:D *280:14 0
28 *1163:B1 *1163:A1 2.75145e-05
29 *1164:A *1162:B 5.43042e-05
30 *1164:B *1163:A1 4.00541e-06
31 *1165:B *1162:B 1.26548e-05
32 *1166:A2 *1163:A1 6.07575e-06
33 *1166:B1_N *1162:B 1.34594e-05
34 *1168:CLK *1162:B 0.000193801
35 *1168:D *1162:B 0
36 *1202:A *280:12 5.39961e-05
37 *1203:A *280:12 0
38 *203:10 *280:12 0.000156842
39 *235:8 *280:14 0.000107634
40 *238:12 *280:14 5.51158e-05
41 *242:12 *1162:B 0.000116853
42 *249:18 *1162:B 5.41248e-05
*RES
1 *1199:X *280:12 48.3075 
2 *280:12 *280:14 9.1575 
3 *280:14 *1162:B 10.47 
4 *280:14 *1163:A1 7.53 
*END

*D_NET *281 0.00734039
*CONN
*I *1155:B I *D sky130_fd_sc_hd__nand3_1
*I *1156:A1 I *D sky130_fd_sc_hd__a21o_1
*I *1200:X O *D sky130_fd_sc_hd__buf_1
*CAP
1 *1155:B 0
2 *1156:A1 0.00017019
3 *1200:X 0.00199507
4 *281:14 0.000316601
5 *281:12 0.00214148
6 *1156:A1 *298:403 0.000189291
7 *281:12 *297:88 0
8 *281:12 *297:97 0
9 *281:12 *297:113 0
10 *281:12 *297:122 0
11 *281:12 *297:637 0
12 *281:12 *298:429 0
13 *972:D *281:12 0
14 *1048:D *281:12 5.13155e-05
15 *1122:B *281:12 0.000113972
16 *1125:D *281:12 4.7043e-05
17 *1148:A *281:12 0.000116158
18 *1151:B *281:12 0.000139238
19 *1155:A *1156:A1 0.000200089
20 *1155:A *281:14 2.49909e-05
21 *1156:B1 *1156:A1 0.000141606
22 *1157:B *281:12 0
23 *1159:B1_N *281:14 0.000124895
24 *1189:D *281:12 0
25 *45:10 *281:12 0
26 *48:14 *281:12 4.94404e-05
27 *49:12 *281:12 0
28 *231:12 *281:12 7.36484e-05
29 *237:8 *281:14 3.79854e-05
30 *280:12 *281:12 0.00125659
31 *280:14 *281:12 0.000150785
*RES
1 *1200:X *281:12 47.735 
2 *281:12 *281:14 2.52 
3 *281:14 *1156:A1 10.43 
4 *281:14 *1155:B 1.6 
*END

*D_NET *282 0.00530212
*CONN
*I *1057:B I *D sky130_fd_sc_hd__nand3_1
*I *1058:A1 I *D sky130_fd_sc_hd__a21o_1
*I *1201:X O *D sky130_fd_sc_hd__buf_1
*CAP
1 *1057:B 0.000182745
2 *1058:A1 0.000297993
3 *1201:X 0.00120774
4 *282:14 0.00168848
5 *1058:A1 *293:18 9.37731e-05
6 *282:14 *1078:B 1.44259e-05
7 *282:14 *293:18 0.00112148
8 *282:14 *296:12 0
9 *282:14 *298:802 0
10 *951:A *282:14 0.00013521
11 *1057:A *1057:B 4.82863e-05
12 *1057:A *1058:A1 0
13 *1066:A *282:14 7.34364e-05
14 *1067:A *282:14 0
15 *1068:B1_N *282:14 0.00010131
16 *1074:A *282:14 0
17 *1081:B *282:14 0
18 *141:12 *1058:A1 5.35969e-06
19 *152:10 *282:14 0
20 *162:10 *282:14 0.000296088
21 *164:10 *282:14 3.57846e-05
*RES
1 *1201:X *282:14 29.625 
2 *282:14 *1058:A1 7.245 
3 *282:14 *1057:B 6.12 
*END

*D_NET *283 0.00636385
*CONN
*I *1148:B I *D sky130_fd_sc_hd__nand3_1
*I *1149:A1 I *D sky130_fd_sc_hd__a21o_1
*I *1202:X O *D sky130_fd_sc_hd__buf_1
*CAP
1 *1148:B 0.000285039
2 *1149:A1 0.000120901
3 *1202:X 0.00137112
4 *283:10 0.00177706
5 *1149:A1 *298:439 2.11084e-05
6 *1149:A1 *298:443 9.37731e-05
7 *283:10 *1142:A2 0.000100156
8 *283:10 *285:14 0
9 *283:10 *297:649 0.000252984
10 *283:10 *297:661 0.000471975
11 *283:10 *298:443 0.000359157
12 *1044:B1 *283:10 0
13 *1045:B *283:10 0
14 *1046:B *283:10 0
15 *1047:A1 *283:10 0
16 *1049:D *283:10 4.7043e-05
17 *1122:A *283:10 0.000106869
18 *1126:D *283:10 0.000158084
19 *1141:A *283:10 7.81876e-05
20 *1144:A *283:10 0
21 *1148:A *1148:B 0.000124895
22 *127:10 *283:10 0
23 *131:12 *283:10 0
24 *203:10 *283:10 5.18691e-05
25 *204:12 *283:10 0.000118527
26 *206:12 *283:10 0.000316806
27 *208:10 *283:10 0
28 *280:12 *283:10 0.000508306
*RES
1 *1202:X *283:10 36.885 
2 *283:10 *1149:A1 5.52 
3 *283:10 *1148:B 7.5 
*END

*D_NET *284 0.00580609
*CONN
*I *1142:A1 I *D sky130_fd_sc_hd__a21o_1
*I *1141:B I *D sky130_fd_sc_hd__nand3_1
*I *1203:X O *D sky130_fd_sc_hd__buf_1
*CAP
1 *1142:A1 1.17533e-05
2 *1141:B 0.000375805
3 *1203:X 0.001502
4 *284:10 0.00188956
5 *1141:B *1142:A2 8.79913e-05
6 *284:10 *1043:B 0.000361299
7 *284:10 *285:14 0
8 *284:10 *287:8 6.38291e-05
9 *284:10 *298:148 7.18817e-05
10 *284:10 *298:154 0.000533266
11 *948:A *1141:B 0
12 *1043:A *284:10 0.000229897
13 *1123:B *284:10 0
14 *1126:D *284:10 0
15 *1141:A *1141:B 0.000116165
16 *1142:B1 *1141:B 2.06853e-05
17 *1142:B1 *1142:A1 4.82863e-05
18 *1143:B *1141:B 2.92496e-05
19 *1144:A *1141:B 4.51867e-05
20 *1145:A2 *1141:B 0.000308719
21 *1145:A2 *1142:A1 2.75145e-05
22 *1204:A *284:10 3.05295e-05
23 *1206:A *284:10 2.24336e-05
24 *1207:A *284:10 0
25 *131:12 *284:10 0
26 *223:10 *1141:B 3.00381e-05
*RES
1 *1203:X *284:10 33.345 
2 *284:10 *1141:B 14.215 
3 *284:10 *1142:A1 4.05 
*END

*D_NET *285 0.00285247
*CONN
*I *1120:B I *D sky130_fd_sc_hd__nand3_1
*I *1121:A1 I *D sky130_fd_sc_hd__a21o_1
*I *1204:X O *D sky130_fd_sc_hd__buf_1
*CAP
1 *1120:B 0
2 *1121:A1 3.91701e-05
3 *1204:X 0.000592231
4 *285:14 0.000631401
5 *1121:A1 *1121:A2 0.000180272
6 *285:14 *1121:A2 3.7712e-05
7 *285:14 *298:148 0.00017219
8 *285:14 *298:154 0.000416954
9 *1044:B1 *285:14 0.000139245
10 *1045:A *285:14 0.000233925
11 *1045:B *285:14 0
12 *1046:B *285:14 9.29751e-06
13 *1047:A1 *285:14 0.000190073
14 *1049:D *285:14 0
15 *1120:A *1121:A1 3.25635e-05
16 *1120:A *285:14 9.72742e-06
17 *127:10 *285:14 0
18 *131:12 *285:14 0.000167709
19 *283:10 *285:14 0
20 *284:10 *285:14 0
*RES
1 *1204:X *285:14 22.415 
2 *285:14 *1121:A1 3.1 
3 *285:14 *1120:B 1.6 
*END

*D_NET *286 0.00627808
*CONN
*I *1113:B I *D sky130_fd_sc_hd__nand3_1
*I *1114:A1 I *D sky130_fd_sc_hd__a21o_1
*I *1205:X O *D sky130_fd_sc_hd__buf_1
*CAP
1 *1113:B 0.000245043
2 *1114:A1 0
3 *1205:X 0.00115796
4 *286:12 0.001403
5 *1113:B *1114:A2 0.000189845
6 *1113:B *298:250 2.92496e-05
7 *1113:B *298:265 0.000174019
8 *286:12 *1114:A2 4.99619e-05
9 *1096:A1 *286:12 0.000218237
10 *1097:D *286:12 0
11 *1098:D *286:12 0
12 *1103:A1 *286:12 0.000103192
13 *1111:D *286:12 0.00011852
14 *1114:B1 *1113:B 3.76596e-05
15 *1117:A2 *1113:B 0.000137571
16 *176:10 *286:12 0.000296088
17 *271:8 *286:12 0
18 *274:14 *1113:B 0
19 *274:14 *286:12 0.00211774
*RES
1 *1205:X *286:12 36.515 
2 *286:12 *1114:A1 1.6 
3 *286:12 *1113:B 10.685 
*END

*D_NET *287 0.00134748
*CONN
*I *1044:A1 I *D sky130_fd_sc_hd__a21o_1
*I *1043:B I *D sky130_fd_sc_hd__nand3_1
*I *1206:X O *D sky130_fd_sc_hd__clkbuf_1
*CAP
1 *1044:A1 0.000119174
2 *1043:B 0.000229925
3 *1206:X 2.86756e-05
4 *287:8 0.000377775
5 *1044:A1 *288:10 4.01778e-05
6 *1044:A1 *298:144 4.99619e-05
7 *1043:A *1043:B 2.75229e-05
8 *1207:A *1043:B 2.24336e-05
9 *1207:A *287:8 2.67022e-05
10 *284:10 *1043:B 0.000361299
11 *284:10 *287:8 6.38291e-05
*RES
1 *1206:X *287:8 4.47 
2 *287:8 *1043:B 8.595 
3 *287:8 *1044:A1 5.085 
*END

*D_NET *288 0.00152187
*CONN
*I *965:A1 I *D sky130_fd_sc_hd__a21o_1
*I *964:B I *D sky130_fd_sc_hd__nand3_1
*I *1207:X O *D sky130_fd_sc_hd__clkbuf_1
*CAP
1 *965:A1 3.75406e-05
2 *964:B 0
3 *1207:X 0.000391846
4 *288:10 0.000429386
5 *965:A1 *965:A2 4.99619e-05
6 *965:A1 *298:135 0.000131986
7 *288:10 *298:135 2.32597e-05
8 *288:10 *298:144 0.000334471
9 *964:A *965:A1 2.30292e-05
10 *964:A *288:10 3.26889e-05
11 *1044:A1 *288:10 4.01778e-05
12 *127:10 *288:10 2.75229e-05
*RES
1 *1207:X *288:10 9.325 
2 *288:10 *964:B 1.6 
3 *288:10 *965:A1 3.1 
*END

*D_NET *289 0.00600609
*CONN
*I *1106:B I *D sky130_fd_sc_hd__nand3_1
*I *1107:A1 I *D sky130_fd_sc_hd__a21o_1
*I *1208:X O *D sky130_fd_sc_hd__buf_1
*CAP
1 *1106:B 0.000207741
2 *1107:A1 5.95796e-05
3 *1208:X 0.000965861
4 *289:18 0.00123318
5 *1106:B *298:244 5.12017e-06
6 *1106:B *298:250 2.5947e-05
7 *1107:A1 *1107:A2 4.60584e-05
8 *289:18 *1093:A2 2.16306e-05
9 *289:18 *1099:C 0.000308062
10 *289:18 *1100:A1 6.46632e-05
11 *289:18 *290:14 0.00105088
12 *289:18 *298:229 0.000195299
13 *1092:A *289:18 0.000226855
14 *1093:B1 *289:18 7.4027e-05
15 *1095:B *289:18 0.000294131
16 *1099:A *289:18 0.00010596
17 *1100:B1 *289:18 0.000180689
18 *1101:A *289:18 0
19 *1106:A *1106:B 0.000228515
20 *1107:B1 *1106:B 0.000170857
21 *1107:B1 *1107:A1 4.82863e-05
22 *1107:B1 *289:18 7.21296e-06
23 *1110:A1 *1106:B 1.07797e-05
24 *1110:A2 *1106:B 0.000183745
25 *180:12 *289:18 0.000174846
26 *187:12 *289:18 0
27 *190:8 *1106:B 0.000116165
28 *274:14 *1106:B 0
29 *274:14 *289:18 0
*RES
1 *1208:X *289:18 31.73 
2 *289:18 *1107:A1 2.74 
3 *289:18 *1106:B 11.135 
*END

*D_NET *290 0.00427621
*CONN
*I *1099:B I *D sky130_fd_sc_hd__nand3_1
*I *1100:A1 I *D sky130_fd_sc_hd__a21o_1
*I *1209:X O *D sky130_fd_sc_hd__buf_1
*CAP
1 *1099:B 0
2 *1100:A1 0.000287403
3 *1209:X 0.000531461
4 *290:14 0.000818863
5 *1100:A1 *1099:C 0.000315906
6 *1100:A1 *298:221 4.51825e-06
7 *290:14 *291:10 1.83847e-05
8 *290:14 *297:286 0.000247576
9 *290:14 *297:288 0.000105069
10 *290:14 *297:290 4.28483e-05
11 *290:14 *297:292 0.000105095
12 *1090:D *290:14 6.47516e-05
13 *1100:B1 *1100:A1 5.4155e-06
14 *1101:B *1100:A1 3.54502e-05
15 *1103:B1_N *1100:A1 0.00015332
16 *180:12 *290:14 0.00034058
17 *182:10 *290:14 8.40269e-05
18 *274:14 *1100:A1 0
19 *289:18 *1100:A1 6.46632e-05
20 *289:18 *290:14 0.00105088
*RES
1 *1209:X *290:14 23.36 
2 *290:14 *1100:A1 12.05 
3 *290:14 *1099:B 1.6 
*END

*D_NET *291 0.00144557
*CONN
*I *1093:A1 I *D sky130_fd_sc_hd__a21o_1
*I *1092:B I *D sky130_fd_sc_hd__nand3_1
*I *1210:X O *D sky130_fd_sc_hd__clkbuf_1
*CAP
1 *1093:A1 0
2 *1092:B 0.000112598
3 *1210:X 0.000310153
4 *291:10 0.000422751
5 *1092:B *1093:A2 0.000359931
6 *1093:B1 *291:10 7.26037e-05
7 *274:14 *1092:B 0.000149151
8 *290:14 *291:10 1.83847e-05
*RES
1 *1210:X *291:10 6.565 
2 *291:10 *1092:B 9.785 
3 *291:10 *1093:A1 1.6 
*END

*D_NET *292 0.0019194
*CONN
*I *1086:A1 I *D sky130_fd_sc_hd__a21o_1
*I *1085:B I *D sky130_fd_sc_hd__nand3_1
*I *1211:X O *D sky130_fd_sc_hd__clkbuf_1
*CAP
1 *1086:A1 3.54038e-05
2 *1085:B 0.000181264
3 *1211:X 0.000374683
4 *292:12 0.000591351
5 *1085:B *295:14 1.01155e-05
6 *1085:B *298:194 1.76611e-05
7 *292:12 *1086:A2 4.86642e-05
8 *292:12 *295:14 0.000166365
9 *292:12 *298:54 0.000156973
10 *1085:A *1085:B 3.59921e-05
11 *1087:A *1085:B 1.52352e-05
12 *1087:B *1085:B 0.000160679
13 *1087:B *1086:A1 4.76682e-05
14 *1087:B *292:12 2.84864e-05
15 *1088:B *1085:B 4.8854e-05
*RES
1 *1211:X *292:12 10.065 
2 *292:12 *1085:B 7.425 
3 *292:12 *1086:A1 4.05 
*END

*D_NET *293 0.00704383
*CONN
*I *1050:B I *D sky130_fd_sc_hd__nand3_1
*I *1051:A1 I *D sky130_fd_sc_hd__a21o_1
*I *1212:X O *D sky130_fd_sc_hd__buf_1
*CAP
1 *1050:B 0
2 *1051:A1 4.77361e-05
3 *1212:X 0.00194137
4 *293:18 0.00198911
5 *1051:A1 *1050:C 0
6 *1051:A1 *1051:A2 4.99619e-05
7 *1051:A1 *298:572 1.12578e-05
8 *293:18 *1050:C 4.99619e-05
9 *293:18 *1064:B 0.000247553
10 *293:18 *1078:B 5.16348e-05
11 *293:18 *298:572 7.86176e-05
12 *293:18 *302:10 0
13 *293:18 *302:18 0.000708503
14 *1050:A *1051:A1 3.25635e-05
15 *1057:A *293:18 0
16 *1058:A1 *293:18 9.37731e-05
17 *1060:A *293:18 4.92206e-05
18 *1060:B *293:18 0.00011852
19 *1077:D *293:18 3.68682e-05
20 *41:56 *293:18 0
21 *133:8 *1051:A1 8.8266e-05
22 *140:12 *293:18 0
23 *161:12 *293:18 0.000296081
24 *164:10 *293:18 3.13459e-05
25 *282:14 *293:18 0.00112148
*RES
1 *1212:X *293:18 48.14 
2 *293:18 *1051:A1 3.1 
3 *293:18 *1050:B 1.6 
*END

*D_NET *294 0.00195576
*CONN
*I *1078:B I *D sky130_fd_sc_hd__nand3_1
*I *1079:A1 I *D sky130_fd_sc_hd__a21o_1
*I *1213:X O *D sky130_fd_sc_hd__clkbuf_1
*CAP
1 *1078:B 0.000177718
2 *1079:A1 0
3 *1213:X 0.000541052
4 *294:14 0.00071877
5 *1078:B *298:63 0.000225586
6 *294:14 *295:14 2.77283e-05
7 *294:14 *296:12 7.06865e-05
8 *294:14 *297:274 4.43871e-06
9 *294:14 *298:54 6.52265e-05
10 *294:14 *298:63 4.99619e-05
11 *164:10 *1078:B 8.53113e-06
12 *282:14 *1078:B 1.44259e-05
13 *293:18 *1078:B 5.16348e-05
*RES
1 *1213:X *294:14 12.2 
2 *294:14 *1079:A1 1.6 
3 *294:14 *1078:B 8.39 
*END

*D_NET *295 0.00302722
*CONN
*I *1071:B I *D sky130_fd_sc_hd__nand3_1
*I *1072:A1 I *D sky130_fd_sc_hd__a21o_1
*I *1214:X O *D sky130_fd_sc_hd__clkbuf_1
*CAP
1 *1071:B 0
2 *1072:A1 0.000257108
3 *1214:X 0.000808663
4 *295:14 0.00106577
5 *1072:A1 *298:196 0
6 *1072:A1 *298:789 4.89295e-05
7 *295:14 *297:247 0
8 *295:14 *297:254 0
9 *295:14 *297:274 0
10 *295:14 *298:194 0
11 *295:14 *298:196 0
12 *1071:A *1072:A1 0.000192231
13 *1071:A *295:14 2.97746e-05
14 *1072:B1 *1072:A1 0.000241643
15 *1082:A1 *295:14 0
16 *1083:D *295:14 3.89528e-05
17 *1085:B *295:14 1.01155e-05
18 *1087:B *295:14 0.00013994
19 *1214:A *295:14 0
20 *159:8 *295:14 0
21 *292:12 *295:14 0.000166365
22 *294:14 *295:14 2.77283e-05
*RES
1 *1214:X *295:14 18.405 
2 *295:14 *1072:A1 9.255 
3 *295:14 *1071:B 3.6 
*END

*D_NET *296 0.00410987
*CONN
*I *1064:B I *D sky130_fd_sc_hd__nand3_1
*I *1065:A1 I *D sky130_fd_sc_hd__a21o_1
*I *1215:X O *D sky130_fd_sc_hd__buf_1
*CAP
1 *1064:B 0.00036679
2 *1065:A1 0
3 *1215:X 0.000809211
4 *296:12 0.001176
5 *1064:B *1064:C 0.000551028
6 *296:12 *297:233 0.000187416
7 *296:12 *297:247 0.000382915
8 *296:12 *297:254 7.75325e-05
9 *296:12 *297:274 3.47754e-05
10 *951:A *296:12 0
11 *1074:A *296:12 4.31106e-05
12 *1081:B *296:12 6.74079e-05
13 *152:10 *296:12 9.54399e-05
14 *282:14 *296:12 0
15 *293:18 *1064:B 0.000247553
16 *294:14 *296:12 7.06865e-05
*RES
1 *1215:X *296:12 23.24 
2 *296:12 *1065:A1 1.6 
3 *296:12 *1064:B 12.41 
*END

*D_NET *297 0.0788854
*CONN
*I *1168:RESET_B I *D sky130_fd_sc_hd__dfrtp_1
*I *1126:RESET_B I *D sky130_fd_sc_hd__dfrtp_1
*I *1189:RESET_B I *D sky130_fd_sc_hd__dfrtp_1
*I *1049:RESET_B I *D sky130_fd_sc_hd__dfrtp_1
*I *1048:RESET_B I *D sky130_fd_sc_hd__dfrtp_1
*I *971:RESET_B I *D sky130_fd_sc_hd__dfrtp_1
*I *992:RESET_B I *D sky130_fd_sc_hd__dfrtp_1
*I *1000:RESET_B I *D sky130_fd_sc_hd__dfrtp_1
*I *1084:RESET_B I *D sky130_fd_sc_hd__dfrtp_1
*I *993:RESET_B I *D sky130_fd_sc_hd__dfrtp_1
*I *972:RESET_B I *D sky130_fd_sc_hd__dfrtp_1
*I *986:RESET_B I *D sky130_fd_sc_hd__dfrtp_1
*I *1006:RESET_B I *D sky130_fd_sc_hd__dfrtp_1
*I *1090:RESET_B I *D sky130_fd_sc_hd__dfrtp_1
*I *1091:RESET_B I *D sky130_fd_sc_hd__dfrtp_1
*I *1098:RESET_B I *D sky130_fd_sc_hd__dfrtp_1
*I *1076:RESET_B I *D sky130_fd_sc_hd__dfrtp_1
*I *1104:RESET_B I *D sky130_fd_sc_hd__dfrtp_1
*I *1105:RESET_B I *D sky130_fd_sc_hd__dfrtp_1
*I *1069:RESET_B I *D sky130_fd_sc_hd__dfrtp_1
*I *1111:RESET_B I *D sky130_fd_sc_hd__dfrtp_1
*I *1062:RESET_B I *D sky130_fd_sc_hd__dfrtp_1
*I *1118:RESET_B I *D sky130_fd_sc_hd__dfrtp_1
*I *1119:RESET_B I *D sky130_fd_sc_hd__dfrtp_1
*I *1132:RESET_B I *D sky130_fd_sc_hd__dfrtp_1
*I *1055:RESET_B I *D sky130_fd_sc_hd__dfrtp_1
*I *1133:RESET_B I *D sky130_fd_sc_hd__dfrtp_1
*I *1139:RESET_B I *D sky130_fd_sc_hd__dfrtp_1
*I *1042:RESET_B I *D sky130_fd_sc_hd__dfrtp_1
*I *1041:RESET_B I *D sky130_fd_sc_hd__dfrtp_1
*I *1020:RESET_B I *D sky130_fd_sc_hd__dfrtp_1
*I *1056:RESET_B I *D sky130_fd_sc_hd__dfrtp_1
*I *1021:RESET_B I *D sky130_fd_sc_hd__dfrtp_1
*I *1027:RESET_B I *D sky130_fd_sc_hd__dfrtp_1
*I *1014:RESET_B I *D sky130_fd_sc_hd__dfrtp_1
*I *1181:RESET_B I *D sky130_fd_sc_hd__dfrtp_1
*I *1174:RESET_B I *D sky130_fd_sc_hd__dfrtp_1
*I *1175:RESET_B I *D sky130_fd_sc_hd__dfrtp_1
*I *1028:RESET_B I *D sky130_fd_sc_hd__dfrtp_1
*I *1035:RESET_B I *D sky130_fd_sc_hd__dfrtp_1
*I *1034:RESET_B I *D sky130_fd_sc_hd__dfrtp_1
*I *1140:RESET_B I *D sky130_fd_sc_hd__dfrtp_1
*I *1112:RESET_B I *D sky130_fd_sc_hd__dfrtp_1
*I *1097:RESET_B I *D sky130_fd_sc_hd__dfrtp_1
*I *999:RESET_B I *D sky130_fd_sc_hd__dfrtp_1
*I *1083:RESET_B I *D sky130_fd_sc_hd__dfrtp_1
*I *1077:RESET_B I *D sky130_fd_sc_hd__dfrtp_1
*I *1070:RESET_B I *D sky130_fd_sc_hd__dfrtp_1
*I *1007:RESET_B I *D sky130_fd_sc_hd__dfrtp_1
*I *1063:RESET_B I *D sky130_fd_sc_hd__dfrtp_1
*I *1188:RESET_B I *D sky130_fd_sc_hd__dfrtp_1
*I *978:RESET_B I *D sky130_fd_sc_hd__dfrtp_1
*I *1013:RESET_B I *D sky130_fd_sc_hd__dfrtp_1
*I *985:RESET_B I *D sky130_fd_sc_hd__dfrtp_1
*I *979:RESET_B I *D sky130_fd_sc_hd__dfrtp_1
*I *1125:RESET_B I *D sky130_fd_sc_hd__dfrtp_1
*I *1146:RESET_B I *D sky130_fd_sc_hd__dfrtp_1
*I *1153:RESET_B I *D sky130_fd_sc_hd__dfrtp_1
*I *1182:RESET_B I *D sky130_fd_sc_hd__dfrtp_1
*I *1147:RESET_B I *D sky130_fd_sc_hd__dfrtp_1
*I *1154:RESET_B I *D sky130_fd_sc_hd__dfrtp_1
*I *1160:RESET_B I *D sky130_fd_sc_hd__dfrtp_1
*I *1161:RESET_B I *D sky130_fd_sc_hd__dfrtp_1
*I *1167:RESET_B I *D sky130_fd_sc_hd__dfrtp_1
*I *1216:X O *D sky130_fd_sc_hd__buf_12
*CAP
1 *1168:RESET_B 0.000252885
2 *1126:RESET_B 0.000423886
3 *1189:RESET_B 4.45661e-05
4 *1049:RESET_B 0.000102612
5 *1048:RESET_B 5.86798e-05
6 *971:RESET_B 0.000202934
7 *992:RESET_B 0.000611138
8 *1000:RESET_B 1.48991e-05
9 *1084:RESET_B 0.000448071
10 *993:RESET_B 0.000209786
11 *972:RESET_B 6.01555e-05
12 *986:RESET_B 4.26218e-05
13 *1006:RESET_B 5.23e-06
14 *1090:RESET_B 6.22696e-06
15 *1091:RESET_B 0
16 *1098:RESET_B 0.000204513
17 *1076:RESET_B 4.57809e-05
18 *1104:RESET_B 0.000193819
19 *1105:RESET_B 1.4338e-05
20 *1069:RESET_B 0.000514985
21 *1111:RESET_B 0.00041593
22 *1062:RESET_B 0.000275297
23 *1118:RESET_B 0.000309402
24 *1119:RESET_B 0
25 *1132:RESET_B 0.000385537
26 *1055:RESET_B 0.00017819
27 *1133:RESET_B 0
28 *1139:RESET_B 0.000383825
29 *1042:RESET_B 0
30 *1041:RESET_B 4.67355e-06
31 *1020:RESET_B 0.000116942
32 *1056:RESET_B 7.99682e-05
33 *1021:RESET_B 0
34 *1027:RESET_B 0
35 *1014:RESET_B 0.000521465
36 *1181:RESET_B 0
37 *1174:RESET_B 0.000404391
38 *1175:RESET_B 0.000821209
39 *1028:RESET_B 0.00049464
40 *1035:RESET_B 0.000618828
41 *1034:RESET_B 0.00108058
42 *1140:RESET_B 0.000373261
43 *1112:RESET_B 3.28629e-05
44 *1097:RESET_B 0.000191504
45 *999:RESET_B 0.000526386
46 *1083:RESET_B 0
47 *1077:RESET_B 6.01555e-05
48 *1070:RESET_B 0.000744306
49 *1007:RESET_B 0.000224792
50 *1063:RESET_B 0
51 *1188:RESET_B 0.000392584
52 *978:RESET_B 0.00109067
53 *1013:RESET_B 2.88078e-05
54 *985:RESET_B 0.00172912
55 *979:RESET_B 6.18621e-06
56 *1125:RESET_B 0
57 *1146:RESET_B 4.92333e-05
58 *1153:RESET_B 0
59 *1182:RESET_B 0.000685304
60 *1147:RESET_B 0.000608246
61 *1154:RESET_B 0
62 *1160:RESET_B 7.32153e-05
63 *1161:RESET_B 0.000197003
64 *1167:RESET_B 6.32171e-05
65 *1216:X 0.000469625
66 *297:697 0.00181277
67 *297:681 0.00196094
68 *297:673 0.000529169
69 *297:667 0.00101337
70 *297:661 0.000695004
71 *297:649 0.000270913
72 *297:645 0.000420137
73 *297:637 0.000591609
74 *297:474 0.0009706
75 *297:461 0.000875261
76 *297:450 0.000393626
77 *297:425 0.000721499
78 *297:412 0.000604424
79 *297:400 0.00134047
80 *297:357 0.000840517
81 *297:341 0.000566822
82 *297:337 0.000183261
83 *297:335 0.000504386
84 *297:333 7.32916e-05
85 *297:331 0.000444568
86 *297:327 0.000875636
87 *297:325 0.000367135
88 *297:323 0.000484231
89 *297:312 0.000171249
90 *297:310 0.000506031
91 *297:308 0.00104325
92 *297:302 0.00113221
93 *297:296 0.000349988
94 *297:292 0.000563281
95 *297:290 0.000322181
96 *297:288 0.000408153
97 *297:286 0.000493658
98 *297:276 0.000622339
99 *297:274 0.000855679
100 *297:254 0.00140983
101 *297:247 0.000379554
102 *297:233 0.000710809
103 *297:181 0.000810363
104 *297:175 0.000129659
105 *297:173 0.000387879
106 *297:171 0.000706051
107 *297:165 0.00125201
108 *297:126 0.000823407
109 *297:122 0.000558147
110 *297:113 0.000326698
111 *297:101 0.000238687
112 *297:99 0.000134664
113 *297:97 0.000996966
114 *297:88 0.000519107
115 *297:76 0.00110958
116 *297:56 0.000537954
117 *297:44 0.0007644
118 *297:20 0.000607312
119 *297:10 0.0001702
120 *297:8 0.00079251
121 *971:RESET_B *298:122 4.24575e-05
122 *985:RESET_B *298:667 0
123 *999:RESET_B *298:54 0.000115779
124 *999:RESET_B *298:63 8.65439e-05
125 *999:RESET_B *298:72 0.000517462
126 *1013:RESET_B *303:10 0.00011852
127 *1020:RESET_B *302:18 2.54692e-05
128 *1020:RESET_B *303:10 0
129 *1028:RESET_B *1029:C 0
130 *1028:RESET_B *298:376 0
131 *1035:RESET_B *1029:B 1.34503e-05
132 *1069:RESET_B *298:204 6.71744e-05
133 *1139:RESET_B *298:324 0.000201705
134 *1182:RESET_B *298:439 8.51589e-06
135 *1188:RESET_B *298:645 0
136 *297:8 *1162:C 0
137 *297:10 *1162:C 0
138 *297:97 *1148:C 1.34361e-05
139 *297:171 *303:10 0.00013532
140 *297:173 *303:10 3.76596e-05
141 *297:175 *303:10 6.28765e-05
142 *297:181 *303:10 0.000249829
143 *297:274 *298:54 0.000247561
144 *297:286 *298:37 0
145 *297:296 *298:229 0
146 *297:308 *298:229 0
147 *297:400 *298:384 9.65676e-05
148 *297:474 *304:10 0
149 *297:673 *967:A 1.1392e-05
150 *297:697 *967:A 0
151 *948:A *1146:RESET_B 8.07672e-05
152 *949:A *1020:RESET_B 1.0183e-05
153 *949:A *1056:RESET_B 0.000191831
154 *949:A *297:474 6.6564e-05
155 *951:A *297:233 0.000314745
156 *967:B *297:673 9.54469e-05
157 *969:A2 *297:667 4.82919e-05
158 *978:CLK *978:RESET_B 9.27495e-05
159 *978:D *978:RESET_B 4.44057e-05
160 *984:A1 *985:RESET_B 6.03532e-05
161 *984:A2 *985:RESET_B 0.000178512
162 *984:B1_N *985:RESET_B 0.000238919
163 *985:CLK *297:165 0.000272978
164 *985:D *985:RESET_B 0.000296088
165 *985:D *297:165 6.91063e-05
166 *990:B *297:697 7.22354e-05
167 *993:D *993:RESET_B 0.000116724
168 *1000:CLK *1084:RESET_B 0.000131791
169 *1005:A1 *297:165 0.000277968
170 *1005:B1_N *297:165 4.82919e-05
171 *1006:D *1006:RESET_B 1.95248e-05
172 *1006:D *297:165 0.000208396
173 *1006:D *297:171 6.97202e-05
174 *1010:B *1188:RESET_B 4.43871e-06
175 *1011:A *1188:RESET_B 0
176 *1013:CLK *297:175 1.1561e-05
177 *1013:CLK *297:181 2.33136e-05
178 *1022:A *297:461 0
179 *1022:A *297:474 0
180 *1023:B1 *297:450 6.5928e-05
181 *1023:B1 *297:461 0
182 *1024:A *1175:RESET_B 3.64998e-06
183 *1025:A *297:450 0.000172328
184 *1025:B *1175:RESET_B 4.40325e-06
185 *1025:B *297:450 9.37731e-05
186 *1028:D *297:400 0
187 *1028:D *297:450 0
188 *1029:A *1035:RESET_B 4.99619e-05
189 *1030:B1 *1035:RESET_B 7.25441e-05
190 *1033:A1 *1028:RESET_B 0
191 *1034:CLK *1035:RESET_B 0
192 *1034:D *1035:RESET_B 0
193 *1039:A *1034:RESET_B 4.41506e-05
194 *1039:B *1035:RESET_B 0
195 *1041:CLK *1140:RESET_B 1.0555e-05
196 *1041:CLK *297:341 3.61491e-05
197 *1041:D *1034:RESET_B 0.00030664
198 *1041:D *1041:RESET_B 1.86534e-05
199 *1041:D *297:357 9.25387e-05
200 *1048:CLK *992:RESET_B 1.56428e-05
201 *1048:CLK *297:667 5.062e-06
202 *1049:CLK *297:645 6.52265e-05
203 *1049:D *1049:RESET_B 9.2741e-05
204 *1049:D *297:645 5.83121e-06
205 *1055:CLK *1055:RESET_B 0.000152878
206 *1062:CLK *1062:RESET_B 0.000160314
207 *1062:CLK *297:310 3.09233e-05
208 *1062:CLK *297:312 0.00013006
209 *1062:CLK *297:323 4.61595e-05
210 *1062:D *1062:RESET_B 0.000114789
211 *1063:D *1013:RESET_B 0.000120186
212 *1063:D *297:181 0.000201335
213 *1069:CLK *1069:RESET_B 1.83847e-05
214 *1069:D *1069:RESET_B 0.000122152
215 *1070:CLK *1070:RESET_B 6.42013e-05
216 *1070:D *1007:RESET_B 1.83847e-05
217 *1070:D *297:171 3.09233e-05
218 *1070:D *297:173 0.00026898
219 *1071:A *297:233 0
220 *1071:A *297:247 0
221 *1076:D *1076:RESET_B 0.000117109
222 *1079:B1 *999:RESET_B 6.97118e-05
223 *1082:A1 *297:247 0.000186099
224 *1083:D *297:247 0
225 *1090:D *297:286 0.000116158
226 *1091:D *297:286 0
227 *1091:D *297:288 0
228 *1097:CLK *1097:RESET_B 8.34323e-05
229 *1101:A *297:296 7.63125e-05
230 *1102:A *1104:RESET_B 8.49205e-05
231 *1103:A1 *1104:RESET_B 7.50775e-05
232 *1105:D *1069:RESET_B 0
233 *1105:D *1105:RESET_B 2.91561e-06
234 *1105:D *297:296 0.000270647
235 *1105:D *297:302 6.23763e-05
236 *1105:D *297:308 0
237 *1108:B *1111:RESET_B 0.000119762
238 *1109:A *1111:RESET_B 1.61831e-05
239 *1109:B *1111:RESET_B 6.58423e-05
240 *1110:A1 *1111:RESET_B 1.99681e-05
241 *1112:D *1111:RESET_B 9.39355e-05
242 *1112:D *297:310 0
243 *1113:A *1118:RESET_B 4.82863e-05
244 *1115:A *1118:RESET_B 8.38013e-05
245 *1116:B *297:327 0
246 *1118:CLK *1118:RESET_B 0.000616319
247 *1118:D *1118:RESET_B 4.24575e-05
248 *1125:D *297:122 0
249 *1126:CLK *1126:RESET_B 4.43682e-05
250 *1126:D *1126:RESET_B 8.47235e-05
251 *1130:A *297:327 0
252 *1130:B *1132:RESET_B 0.000145184
253 *1133:D *1132:RESET_B 0.000122797
254 *1135:A1 *1139:RESET_B 0.000128283
255 *1135:B1 *1139:RESET_B 0.0001249
256 *1140:CLK *1140:RESET_B 6.27535e-05
257 *1140:CLK *297:337 5.39961e-05
258 *1140:CLK *297:341 5.73518e-05
259 *1140:D *1140:RESET_B 0.000318639
260 *1140:D *297:357 8.73389e-06
261 *1146:CLK *1146:RESET_B 7.81706e-05
262 *1146:CLK *297:113 6.52181e-05
263 *1146:D *1146:RESET_B 4.95629e-05
264 *1148:A *297:97 0
265 *1151:A *1147:RESET_B 0
266 *1151:A *297:76 1.71034e-05
267 *1152:A1 *297:76 0.000274659
268 *1153:D *1182:RESET_B 0.00011577
269 *1157:B *1160:RESET_B 4.66108e-05
270 *1157:B *297:44 5.16418e-05
271 *1157:B *297:56 7.14699e-05
272 *1158:B *297:44 0.000159922
273 *1159:A1 *297:56 0.000122325
274 *1159:B1_N *297:56 4.70343e-05
275 *1160:D *1160:RESET_B 5.45635e-05
276 *1161:CLK *1161:RESET_B 7.8555e-05
277 *1162:A *297:10 1.15688e-05
278 *1162:B *1168:RESET_B 0.000122331
279 *1164:A *1161:RESET_B 4.82919e-05
280 *1164:A *297:10 0.000137571
281 *1164:A *297:20 0.000116165
282 *1164:A *297:44 5.16348e-05
283 *1164:B *1161:RESET_B 4.35648e-05
284 *1166:A1 *1167:RESET_B 0.000149662
285 *1168:CLK *1168:RESET_B 2.30292e-05
286 *1168:CLK *297:10 0.000114492
287 *1171:A *1174:RESET_B 0
288 *1171:B *1174:RESET_B 6.74079e-05
289 *1172:A *1174:RESET_B 7.45881e-05
290 *1179:A *1014:RESET_B 0.000295343
291 *1179:A *297:425 0.000176255
292 *1180:A1 *1174:RESET_B 0.000180682
293 *1180:A1 *1175:RESET_B 1.56428e-05
294 *1180:A1 *297:425 2.14129e-05
295 *1180:A2 *1174:RESET_B 6.14689e-05
296 *1180:A2 *297:425 9.29751e-06
297 *1181:D *297:425 0
298 *1188:CLK *1188:RESET_B 0.000158078
299 *1188:D *1188:RESET_B 0.000114789
300 *1189:D *297:97 0.000245893
301 *40:8 *297:327 9.23189e-05
302 *40:10 *297:327 0.000110683
303 *40:16 *297:327 0.000257005
304 *40:16 *297:331 0.000344964
305 *40:16 *297:333 9.47454e-05
306 *40:16 *297:335 5.4003e-05
307 *40:16 *297:337 0.000154488
308 *40:95 *297:323 2.92496e-05
309 *40:95 *297:325 0.000210839
310 *40:95 *297:327 0.000131408
311 *40:110 *297:323 9.84487e-05
312 *42:44 *1076:RESET_B 0.000232796
313 *42:120 *1090:RESET_B 1.13009e-05
314 *42:120 *1097:RESET_B 3.95409e-05
315 *42:120 *297:274 4.33275e-05
316 *42:120 *297:276 3.83995e-05
317 *43:12 *297:171 0
318 *43:23 *297:171 0
319 *43:39 *297:171 0
320 *43:54 *1084:RESET_B 0.000181951
321 *43:79 *297:173 0.000148756
322 *43:79 *297:175 5.20968e-05
323 *44:16 *297:400 0
324 *44:85 *1014:RESET_B 0
325 *45:16 *297:44 0.000529575
326 *45:18 *297:10 7.30547e-05
327 *45:18 *297:20 0.00010596
328 *45:18 *297:44 6.45236e-05
329 *45:55 *1160:RESET_B 7.69078e-05
330 *46:55 *985:RESET_B 0.000425312
331 *47:12 *297:637 0
332 *47:21 *297:637 0
333 *47:31 *297:697 0.000164686
334 *47:40 *992:RESET_B 0.000108329
335 *47:40 *297:697 3.09164e-05
336 *47:83 *986:RESET_B 4.70393e-05
337 *47:83 *297:645 0.000142669
338 *47:99 *297:113 0.000321529
339 *47:99 *297:122 0.00024514
340 *47:99 *297:637 0.000112971
341 *47:120 *1126:RESET_B 6.27438e-05
342 *47:120 *1189:RESET_B 2.20753e-05
343 *47:120 *297:99 4.43682e-05
344 *48:14 *297:667 7.99757e-05
345 *49:12 *971:RESET_B 5.33787e-05
346 *49:12 *297:667 4.60584e-05
347 *61:6 *979:RESET_B 2.65337e-05
348 *61:6 *985:RESET_B 0.000227884
349 *61:6 *297:126 4.60584e-05
350 *64:10 *985:RESET_B 2.4997e-05
351 *73:12 *992:RESET_B 1.7386e-05
352 *89:10 *1007:RESET_B 0.000117787
353 *96:12 *297:474 2.65814e-06
354 *99:10 *297:474 3.94592e-05
355 *105:12 *297:450 3.17398e-05
356 *105:12 *297:461 5.80804e-05
357 *105:12 *297:474 2.23407e-05
358 *110:12 *1028:RESET_B 0
359 *113:12 *1035:RESET_B 0
360 *117:14 *1034:RESET_B 0.000185253
361 *117:14 *1035:RESET_B 0.000563482
362 *122:8 *1034:RESET_B 0.000120815
363 *138:12 *1020:RESET_B 0.000163992
364 *152:10 *297:233 8.5841e-05
365 *154:12 *297:233 0
366 *155:12 *297:233 0
367 *159:8 *297:247 0.000296081
368 *161:12 *999:RESET_B 4.66108e-05
369 *180:12 *1098:RESET_B 4.82863e-05
370 *182:10 *297:292 4.5783e-05
371 *182:10 *297:296 5.28781e-05
372 *187:12 *297:308 0
373 *201:10 *297:327 0
374 *213:12 *1132:RESET_B 3.74308e-05
375 *215:10 *1139:RESET_B 3.90988e-05
376 *230:12 *297:76 7.23533e-05
377 *230:12 *297:88 6.85516e-05
378 *230:12 *297:97 0.000108322
379 *231:12 *297:76 2.46089e-05
380 *231:12 *297:88 2.97004e-06
381 *235:8 *297:56 0
382 *242:12 *1161:RESET_B 0.000384631
383 *247:8 *1167:RESET_B 4.41506e-05
384 *249:18 *1168:RESET_B 0.000171783
385 *249:18 *1174:RESET_B 8.97832e-05
386 *249:18 *297:8 1.07797e-05
387 *249:18 *297:10 3.59544e-05
388 *254:10 *1174:RESET_B 0
389 *279:10 *971:RESET_B 0
390 *279:10 *992:RESET_B 0
391 *279:10 *297:97 0
392 *279:10 *297:697 0
393 *280:12 *1147:RESET_B 9.5591e-05
394 *280:12 *297:649 0.000144282
395 *280:12 *297:661 0.000260156
396 *280:14 *1147:RESET_B 0
397 *280:14 *297:44 0
398 *281:12 *297:88 0
399 *281:12 *297:97 0
400 *281:12 *297:113 0
401 *281:12 *297:122 0
402 *281:12 *297:637 0
403 *283:10 *297:649 0.000252984
404 *283:10 *297:661 0.000471975
405 *290:14 *297:286 0.000247576
406 *290:14 *297:288 0.000105069
407 *290:14 *297:290 4.28483e-05
408 *290:14 *297:292 0.000105095
409 *294:14 *297:274 4.43871e-06
410 *295:14 *297:247 0
411 *295:14 *297:254 0
412 *295:14 *297:274 0
413 *296:12 *297:233 0.000187416
414 *296:12 *297:247 0.000382915
415 *296:12 *297:254 7.75325e-05
416 *296:12 *297:274 3.47754e-05
*RES
1 *1216:X *297:8 11.4825 
2 *297:8 *297:10 2.5275 
3 *297:10 *1167:RESET_B 3.4325 
4 *297:10 *297:20 1.38 
5 *297:20 *1161:RESET_B 6.8975 
6 *297:20 *297:44 11.315 
7 *297:44 *1160:RESET_B 1.4325 
8 *297:44 *297:56 7.19 
9 *297:56 *1154:RESET_B 2 
10 *297:56 *1147:RESET_B 6.185 
11 *1147:RESET_B *297:76 7.5875 
12 *297:76 *1182:RESET_B 9.8225 
13 *297:76 *297:88 0.87 
14 *297:88 *1153:RESET_B 2 
15 *297:88 *297:97 11.54 
16 *297:97 *297:99 1.14 
17 *297:99 *297:101 2 
18 *297:101 *1146:RESET_B 3.8675 
19 *297:101 *297:113 4.44 
20 *297:113 *1125:RESET_B 2 
21 *297:113 *297:122 3.36 
22 *297:122 *297:126 3.83 
23 *297:126 *979:RESET_B 0.3975 
24 *297:126 *985:RESET_B 18.775 
25 *985:RESET_B *297:165 15.2625 
26 *297:165 *297:171 6.305 
27 *297:171 *297:173 3.93 
28 *297:173 *297:175 1.38 
29 *297:175 *297:181 3.465 
30 *297:181 *1013:RESET_B 3.38 
31 *297:181 *978:RESET_B 11.7125 
32 *978:RESET_B *1188:RESET_B 11.3425 
33 *297:175 *1063:RESET_B 2 
34 *297:173 *1007:RESET_B 5.5025 
35 *297:171 *1070:RESET_B 6.4625 
36 *1070:RESET_B *297:233 10.1225 
37 *297:233 *1077:RESET_B 2.7425 
38 *297:233 *297:247 8.82 
39 *297:247 *1083:RESET_B 2 
40 *297:247 *297:254 2.145 
41 *297:254 *999:RESET_B 12.6875 
42 *297:254 *297:274 12.215 
43 *297:274 *297:276 1.14 
44 *297:276 *1097:RESET_B 2.8125 
45 *297:276 *297:286 10.265 
46 *297:286 *297:288 2.91 
47 *297:288 *297:290 1.38 
48 *297:290 *297:292 4.185 
49 *297:292 *297:296 6.185 
50 *297:296 *297:302 4.19 
51 *297:302 *297:308 6.72 
52 *297:308 *297:310 2.91 
53 *297:310 *297:312 1.5075 
54 *297:312 *1112:RESET_B 2.6825 
55 *297:312 *297:323 2.0175 
56 *297:323 *297:325 2.4 
57 *297:325 *297:327 6.735 
58 *297:327 *297:331 4.89 
59 *297:331 *297:333 1.125 
60 *297:333 *297:335 0.615 
61 *297:335 *297:337 2.4 
62 *297:337 *297:341 1.83 
63 *297:341 *1140:RESET_B 9.1025 
64 *297:341 *297:357 3.83 
65 *297:357 *1034:RESET_B 12.6375 
66 *1034:RESET_B *1035:RESET_B 12.2725 
67 *1035:RESET_B *1028:RESET_B 8.185 
68 *1028:RESET_B *297:400 6.1175 
69 *297:400 *1175:RESET_B 11.0525 
70 *1175:RESET_B *297:412 2 
71 *297:412 *1174:RESET_B 10.52 
72 *297:412 *297:425 4.485 
73 *297:425 *1181:RESET_B 2 
74 *297:425 *1014:RESET_B 11.0675 
75 *297:400 *297:450 9.445 
76 *297:450 *1027:RESET_B 2 
77 *297:450 *297:461 2.19 
78 *297:461 *1021:RESET_B 2 
79 *297:461 *297:474 13.64 
80 *297:474 *1056:RESET_B 1.7775 
81 *297:474 *1020:RESET_B 6.655 
82 *297:357 *1041:RESET_B 0.3975 
83 *297:337 *1042:RESET_B 2 
84 *297:335 *1139:RESET_B 9.6725 
85 *297:333 *1133:RESET_B 2 
86 *297:331 *1055:RESET_B 4.8275 
87 *297:327 *1132:RESET_B 8.6075 
88 *297:325 *1119:RESET_B 2 
89 *297:323 *1118:RESET_B 9.7925 
90 *297:310 *1062:RESET_B 6.5375 
91 *297:308 *1111:RESET_B 8.6075 
92 *297:302 *1069:RESET_B 8.5625 
93 *297:296 *1105:RESET_B 0.3975 
94 *297:292 *1104:RESET_B 4.8125 
95 *297:290 *1076:RESET_B 4.1225 
96 *297:288 *1098:RESET_B 4.8125 
97 *297:286 *1091:RESET_B 2 
98 *297:274 *1090:RESET_B 0.3975 
99 *297:165 *1006:RESET_B 0.3975 
100 *297:122 *297:637 7.46 
101 *297:637 *986:RESET_B 0.7425 
102 *297:637 *297:645 4.245 
103 *297:645 *297:649 4.91 
104 *297:649 *972:RESET_B 2.7425 
105 *297:649 *297:661 7.46 
106 *297:661 *297:667 7.985 
107 *297:667 *297:673 6.68 
108 *297:673 *993:RESET_B 3.1575 
109 *297:673 *297:681 2 
110 *297:681 *297:697 21.23 
111 *297:697 *1084:RESET_B 7.2975 
112 *297:697 *1000:RESET_B 0.3975 
113 *297:681 *992:RESET_B 10.6775 
114 *297:667 *971:RESET_B 5.5625 
115 *297:661 *1048:RESET_B 0.7425 
116 *297:645 *1049:RESET_B 1.7775 
117 *297:99 *1189:RESET_B 0.7575 
118 *297:97 *1126:RESET_B 5.6925 
119 *297:8 *1168:RESET_B 6.875 
*END

*D_NET *298 0.0678163
*CONN
*I *1092:C I *D sky130_fd_sc_hd__nand3_1
*I *1085:C I *D sky130_fd_sc_hd__nand3_1
*I *1071:C I *D sky130_fd_sc_hd__nand3_1
*I *1064:C I *D sky130_fd_sc_hd__nand3_1
*I *1057:C I *D sky130_fd_sc_hd__nand3_1
*I *1058:A2 I *D sky130_fd_sc_hd__a21o_1
*I *1065:A2 I *D sky130_fd_sc_hd__a21o_1
*I *1072:A2 I *D sky130_fd_sc_hd__a21o_1
*I *1100:A2 I *D sky130_fd_sc_hd__a21o_1
*I *1106:C I *D sky130_fd_sc_hd__nand3_1
*I *1113:C I *D sky130_fd_sc_hd__nand3_1
*I *1128:A2 I *D sky130_fd_sc_hd__a21o_1
*I *1022:C I *D sky130_fd_sc_hd__nand3_1
*I *1183:C I *D sky130_fd_sc_hd__nand3_1
*I *1184:A2 I *D sky130_fd_sc_hd__a21o_1
*I *980:C I *D sky130_fd_sc_hd__nand3_1
*I *981:A2 I *D sky130_fd_sc_hd__a21o_1
*I *1002:A2 I *D sky130_fd_sc_hd__a21o_1
*I *1001:C I *D sky130_fd_sc_hd__nand3_1
*I *974:A2 I *D sky130_fd_sc_hd__a21o_1
*I *973:C I *D sky130_fd_sc_hd__nand3_1
*I *1008:C I *D sky130_fd_sc_hd__nand3_1
*I *1009:A2 I *D sky130_fd_sc_hd__a21o_1
*I *1015:C I *D sky130_fd_sc_hd__nand3_1
*I *1016:A2 I *D sky130_fd_sc_hd__a21o_1
*I *1050:C I *D sky130_fd_sc_hd__nand3_1
*I *1051:A2 I *D sky130_fd_sc_hd__a21o_1
*I *1023:A2 I *D sky130_fd_sc_hd__a21o_1
*I *1163:A2 I *D sky130_fd_sc_hd__a21o_1
*I *1162:C I *D sky130_fd_sc_hd__nand3_1
*I *1169:C I *D sky130_fd_sc_hd__nand3_1
*I *1170:A2 I *D sky130_fd_sc_hd__a21o_1
*I *1156:A2 I *D sky130_fd_sc_hd__a21o_1
*I *1148:C I *D sky130_fd_sc_hd__nand3_1
*I *1149:A2 I *D sky130_fd_sc_hd__a21o_1
*I *1142:A2 I *D sky130_fd_sc_hd__a21o_1
*I *1141:C I *D sky130_fd_sc_hd__nand3_1
*I *1155:C I *D sky130_fd_sc_hd__nand3_1
*I *1177:A2 I *D sky130_fd_sc_hd__a21o_1
*I *1176:C I *D sky130_fd_sc_hd__nand3_1
*I *1029:C I *D sky130_fd_sc_hd__nand3_1
*I *1030:A2 I *D sky130_fd_sc_hd__a21o_1
*I *1036:C I *D sky130_fd_sc_hd__nand3_1
*I *1037:A2 I *D sky130_fd_sc_hd__a21o_1
*I *1135:A2 I *D sky130_fd_sc_hd__a21o_1
*I *1134:C I *D sky130_fd_sc_hd__nand3_1
*I *1127:C I *D sky130_fd_sc_hd__nand3_1
*I *1114:A2 I *D sky130_fd_sc_hd__a21o_1
*I *1107:A2 I *D sky130_fd_sc_hd__a21o_1
*I *1099:C I *D sky130_fd_sc_hd__nand3_1
*I *1044:A2 I *D sky130_fd_sc_hd__a21o_1
*I *1043:C I *D sky130_fd_sc_hd__nand3_1
*I *1120:C I *D sky130_fd_sc_hd__nand3_1
*I *1121:A2 I *D sky130_fd_sc_hd__a21o_1
*I *964:C I *D sky130_fd_sc_hd__nand3_1
*I *965:A2 I *D sky130_fd_sc_hd__a21o_1
*I *987:C I *D sky130_fd_sc_hd__nand3_1
*I *988:A2 I *D sky130_fd_sc_hd__a21o_1
*I *994:C I *D sky130_fd_sc_hd__nand3_1
*I *995:A2 I *D sky130_fd_sc_hd__a21o_1
*I *1078:C I *D sky130_fd_sc_hd__nand3_1
*I *1079:A2 I *D sky130_fd_sc_hd__a21o_1
*I *1086:A2 I *D sky130_fd_sc_hd__a21o_1
*I *1093:A2 I *D sky130_fd_sc_hd__a21o_1
*I *1217:X O *D sky130_fd_sc_hd__buf_12
*CAP
1 *1092:C 3.54923e-05
2 *1085:C 0
3 *1071:C 0.000211938
4 *1064:C 0.000263148
5 *1057:C 3.37454e-05
6 *1058:A2 0.000174297
7 *1065:A2 2.15293e-05
8 *1072:A2 0
9 *1100:A2 0
10 *1106:C 0
11 *1113:C 0
12 *1128:A2 0.00019914
13 *1022:C 0
14 *1183:C 0.000263691
15 *1184:A2 2.08101e-05
16 *980:C 0.00011867
17 *981:A2 0
18 *1002:A2 0.000241982
19 *1001:C 0
20 *974:A2 0.000128304
21 *973:C 0
22 *1008:C 2.08101e-05
23 *1009:A2 0.000174642
24 *1015:C 0.000101678
25 *1016:A2 0
26 *1050:C 6.03524e-05
27 *1051:A2 1.59138e-05
28 *1023:A2 0.000130312
29 *1163:A2 0
30 *1162:C 0.000269011
31 *1169:C 0
32 *1170:A2 7.89559e-05
33 *1156:A2 0
34 *1148:C 4.67424e-05
35 *1149:A2 0
36 *1142:A2 0.000401725
37 *1141:C 0
38 *1155:C 2.92427e-05
39 *1177:A2 0.000354989
40 *1176:C 0
41 *1029:C 0.000100235
42 *1030:A2 0
43 *1036:C 0
44 *1037:A2 0.00021328
45 *1135:A2 5.90797e-05
46 *1134:C 0.000104996
47 *1127:C 0.000217763
48 *1114:A2 8.7158e-05
49 *1107:A2 0.000146358
50 *1099:C 0.000157534
51 *1044:A2 0
52 *1043:C 0
53 *1120:C 0
54 *1121:A2 0.000207594
55 *964:C 0
56 *965:A2 4.27778e-05
57 *987:C 0
58 *988:A2 9.48747e-06
59 *994:C 0
60 *995:A2 2.62497e-05
61 *1078:C 0
62 *1079:A2 0
63 *1086:A2 3.65939e-05
64 *1093:A2 0.000192209
65 *1217:X 0.000118181
66 *298:802 0.000561549
67 *298:789 0.000982987
68 *298:780 0.000444933
69 *298:719 0.000564505
70 *298:701 0.000236263
71 *298:669 0.000532963
72 *298:667 0.000954818
73 *298:647 0.000128304
74 *298:645 0.00112024
75 *298:641 0.00106536
76 *298:632 0.000462496
77 *298:615 0.000674391
78 *298:600 0.000511902
79 *298:587 0.000399719
80 *298:583 0.000622854
81 *298:572 0.000665983
82 *298:547 0.000535658
83 *298:516 0.000610172
84 *298:496 0.000210028
85 *298:492 0.000739082
86 *298:443 0.00054265
87 *298:439 0.000486367
88 *298:429 0.000866323
89 *298:405 0.000384231
90 *298:403 0.000666849
91 *298:399 0.000619444
92 *298:390 0.000504996
93 *298:384 0.00148588
94 *298:376 0.00139447
95 *298:365 0.000507854
96 *298:354 0.000609832
97 *298:345 0.00036476
98 *298:326 0.000430846
99 *298:324 0.00149275
100 *298:309 0.00140951
101 *298:294 0.000809001
102 *298:275 0.000846253
103 *298:269 0.000680644
104 *298:265 0.000492165
105 *298:250 0.000480225
106 *298:244 0.000364958
107 *298:229 0.000566435
108 *298:221 0.000232111
109 *298:204 0.000685376
110 *298:196 0.000851583
111 *298:194 0.000699364
112 *298:186 0.000284457
113 *298:154 0.000536206
114 *298:148 0.000437554
115 *298:144 0.000409029
116 *298:135 0.000466899
117 *298:122 0.000977992
118 *298:113 0.000850265
119 *298:102 0.00045573
120 *298:87 0.000514309
121 *298:72 0.00106685
122 *298:63 0.00100213
123 *298:54 0.000415874
124 *298:37 0.000619414
125 *298:27 0.000742072
126 *298:14 0.00068342
127 *298:10 0.000235078
128 *1002:A2 *1001:B 1.84246e-05
129 *1002:A2 *1002:A1 4.8616e-05
130 *1002:A2 *306:14 3.98349e-05
131 *1002:A2 *307:10 0
132 *1009:A2 *1008:B 3.68596e-05
133 *1009:A2 *304:10 5.72091e-05
134 *1023:A2 *1023:A1 4.58257e-05
135 *1023:A2 *303:14 0
136 *1029:C *303:14 0
137 *1037:A2 *1037:A1 0.000330642
138 *1064:C *302:10 0.000127408
139 *298:87 *307:10 2.78732e-05
140 *298:354 *1029:B 1.85674e-05
141 *298:354 *302:18 0.000311294
142 *298:365 *1029:B 5.9584e-05
143 *298:365 *1030:A1 2.75145e-05
144 *298:376 *303:14 0
145 *298:547 *302:18 0
146 *298:587 *1016:A1 9.50342e-06
147 *298:587 *303:10 0
148 *298:587 *304:10 0
149 *298:600 *1016:A1 0.000112307
150 *298:600 *303:10 0.000106356
151 *298:615 *303:10 8.55971e-05
152 *298:615 *305:10 0.000100308
153 *298:632 *1008:B 6.6564e-05
154 *951:A *1064:C 0.000192125
155 *964:A *965:A2 9.22715e-05
156 *964:A *298:122 1.61831e-05
157 *965:A1 *965:A2 4.99619e-05
158 *965:A1 *298:135 0.000131986
159 *965:B1 *965:A2 9.53428e-06
160 *971:CLK *298:113 1.37328e-05
161 *971:CLK *298:122 0.000241243
162 *971:D *298:122 2.8185e-05
163 *971:RESET_B *298:122 4.24575e-05
164 *973:B *974:A2 5.90735e-05
165 *978:D *298:645 7.23602e-05
166 *980:B *980:C 4.31275e-05
167 *981:A1 *980:C 4.82863e-05
168 *981:B1 *980:C 0.000122331
169 *984:A2 *298:667 0
170 *985:D *298:667 0
171 *985:RESET_B *298:667 0
172 *987:A *988:A2 1.35397e-05
173 *987:A *298:102 9.85313e-05
174 *987:A *298:113 3.97655e-05
175 *987:B *298:113 2.15986e-05
176 *987:B *298:122 1.31519e-05
177 *991:A2 *298:102 0.000124895
178 *994:A *298:72 1.83756e-05
179 *995:A1 *995:A2 1.43124e-05
180 *995:A1 *298:87 2.8585e-06
181 *995:B1 *995:A2 8.58302e-07
182 *999:RESET_B *298:54 0.000115779
183 *999:RESET_B *298:63 8.65439e-05
184 *999:RESET_B *298:72 0.000517462
185 *1001:A *1002:A2 0.000157971
186 *1008:A *1009:A2 0
187 *1008:A *298:632 0.000203178
188 *1010:A *298:641 4.99619e-05
189 *1010:A *298:645 0
190 *1010:B *298:645 0
191 *1012:B1_N *298:645 0
192 *1015:A *298:600 0.000206824
193 *1015:A *298:615 3.09233e-05
194 *1017:B *1015:C 4.82919e-05
195 *1024:A *1023:A2 4.82863e-05
196 *1026:A2 *1023:A2 0.000161529
197 *1028:CLK *298:384 1.83756e-05
198 *1028:RESET_B *1029:C 0
199 *1028:RESET_B *298:376 0
200 *1032:B *1029:C 0
201 *1032:B *298:365 0.0001249
202 *1033:A1 *1029:C 7.63125e-05
203 *1034:CLK *298:326 0
204 *1036:A *1037:A2 6.71803e-06
205 *1036:A *298:326 6.71803e-06
206 *1037:B1 *1037:A2 4.66108e-05
207 *1038:A *1037:A2 0.000124768
208 *1038:B *1037:A2 0
209 *1039:B *1037:A2 5.12017e-06
210 *1039:B *298:326 1.08194e-05
211 *1039:B *298:345 9.82856e-06
212 *1040:A2 *1037:A2 6.58339e-05
213 *1043:A *298:148 0.000231557
214 *1043:A *298:154 9.50342e-06
215 *1044:A1 *298:144 4.99619e-05
216 *1045:A *298:148 4.44927e-05
217 *1045:A *298:154 0.000187766
218 *1050:A *1051:A2 8.65961e-05
219 *1050:A *298:572 8.8266e-05
220 *1051:A1 *1050:C 0
221 *1051:A1 *1051:A2 4.99619e-05
222 *1051:A1 *298:572 1.12578e-05
223 *1057:A *1058:A2 0
224 *1064:B *1064:C 0.000551028
225 *1065:B1 *298:802 2.84137e-05
226 *1066:B *1064:C 4.99619e-05
227 *1066:B *1065:A2 0
228 *1067:A *298:802 0
229 *1068:A2 *1064:C 3.24055e-05
230 *1068:A2 *298:802 0.000166935
231 *1069:CLK *298:204 4.82919e-05
232 *1069:RESET_B *298:204 6.71744e-05
233 *1071:A *1071:C 8.35068e-05
234 *1072:A1 *298:196 0
235 *1072:A1 *298:789 4.89295e-05
236 *1072:B1 *298:196 0
237 *1078:B *298:63 0.000225586
238 *1079:B1 *298:63 0.000122331
239 *1083:CLK *1086:A2 4.66108e-05
240 *1083:CLK *298:37 0.000119866
241 *1085:A *298:37 1.43253e-05
242 *1085:A *298:194 5.83121e-06
243 *1085:B *298:194 1.76611e-05
244 *1087:B *1086:A2 4.77719e-05
245 *1089:A1 *298:37 0.000151942
246 *1089:A1 *298:194 0.000186099
247 *1089:A2 *298:37 8.58063e-05
248 *1089:B1_N *298:186 5.83121e-06
249 *1089:B1_N *298:194 8.34281e-06
250 *1091:D *298:194 3.17252e-05
251 *1092:A *1093:A2 0.000124768
252 *1092:B *1093:A2 0.000359931
253 *1093:B1 *1093:A2 4.65643e-05
254 *1095:B *1093:A2 0.000116853
255 *1095:B *298:10 0
256 *1100:A1 *1099:C 0.000315906
257 *1100:A1 *298:221 4.51825e-06
258 *1100:B1 *1099:C 8.40269e-05
259 *1100:B1 *298:204 1.16578e-05
260 *1100:B1 *298:221 0
261 *1101:A *298:229 4.18603e-06
262 *1101:B *1099:C 8.73389e-06
263 *1101:B *298:204 1.17409e-05
264 *1101:B *298:221 6.12918e-06
265 *1105:D *298:229 0
266 *1106:A *298:244 0.000126635
267 *1106:B *298:244 5.12017e-06
268 *1106:B *298:250 2.5947e-05
269 *1107:A1 *1107:A2 4.60584e-05
270 *1107:B1 *1107:A2 0.000160635
271 *1107:B1 *298:244 6.55328e-05
272 *1108:A *298:244 0.000136884
273 *1113:B *1114:A2 0.000189845
274 *1113:B *298:250 2.92496e-05
275 *1113:B *298:265 0.000174019
276 *1114:B1 *1114:A2 8.65905e-05
277 *1115:B *1114:A2 2.65814e-06
278 *1115:B *298:265 3.0807e-05
279 *1116:B *298:269 0
280 *1117:A2 *298:265 4.24292e-06
281 *1117:A2 *298:269 3.35508e-05
282 *1117:B1_N *298:269 7.23533e-05
283 *1120:A *1121:A2 0.000101806
284 *1121:A1 *1121:A2 0.000180272
285 *1127:A *1127:C 4.82863e-05
286 *1128:A1 *1127:C 0.000117133
287 *1128:B1 *1127:C 0
288 *1129:A *298:294 9.32652e-05
289 *1130:A *1128:A2 3.09164e-05
290 *1132:D *298:294 1.82563e-05
291 *1134:A *1134:C 4.82863e-05
292 *1134:A *1135:A2 0
293 *1134:A *298:294 2.59981e-05
294 *1134:A *298:309 4.21973e-05
295 *1134:B *1134:C 3.74161e-05
296 *1135:A1 *298:294 1.52945e-05
297 *1135:B1 *1135:A2 0
298 *1139:RESET_B *298:324 0.000201705
299 *1141:B *1142:A2 8.79913e-05
300 *1143:B *1142:A2 2.16389e-05
301 *1144:A *1142:A2 0
302 *1144:B *1142:A2 6.77417e-05
303 *1145:B1_N *1142:A2 0.000113797
304 *1147:D *1142:A2 4.82919e-05
305 *1149:A1 *298:439 2.11084e-05
306 *1149:A1 *298:443 9.37731e-05
307 *1149:B1 *298:439 0.000155726
308 *1153:D *298:429 0
309 *1155:A *298:403 8.08153e-06
310 *1155:A *298:429 1.22762e-05
311 *1156:A1 *298:403 0.000189291
312 *1162:A *1162:C 0
313 *1162:B *1162:C 8.65905e-05
314 *1163:B1 *1162:C 0
315 *1166:A1 *1162:C 0.000187486
316 *1166:A2 *1162:C 8.74652e-05
317 *1166:B1_N *1162:C 9.27255e-06
318 *1167:CLK *1170:A2 9.53428e-06
319 *1167:D *1162:C 0
320 *1169:A *1170:A2 4.75832e-05
321 *1170:A1 *1170:A2 1.12578e-05
322 *1171:A *298:496 0
323 *1173:B1_N *1170:A2 0
324 *1178:A *298:390 1.43521e-05
325 *1180:A2 *298:384 0.000272978
326 *1180:B1_N *298:384 0.000162311
327 *1180:B1_N *298:390 2.67022e-05
328 *1181:D *298:384 0.00012657
329 *1182:RESET_B *298:439 8.51589e-06
330 *1184:A1 *1183:C 0.00034445
331 *1184:B1 *1183:C 6.73496e-05
332 *1188:CLK *298:645 0
333 *1188:RESET_B *298:645 0
334 *1208:A *1093:A2 9.50342e-06
335 *39:51 *1183:C 0
336 *41:10 *298:547 4.20983e-05
337 *41:38 *298:547 9.88593e-05
338 *41:56 *298:547 6.23375e-05
339 *41:56 *298:572 1.14361e-05
340 *42:10 *298:196 0.000178255
341 *42:10 *298:204 0.000143266
342 *42:34 *298:196 0.000229904
343 *42:88 *298:194 0.000178255
344 *42:88 *298:196 0.000141599
345 *42:103 *298:194 0.000340587
346 *45:10 *298:429 2.51475e-05
347 *46:12 *298:667 0
348 *46:18 *298:667 0
349 *46:22 *298:645 0
350 *46:22 *298:667 0
351 *46:79 *298:667 0
352 *51:6 *298:122 5.34747e-05
353 *58:16 *298:645 0.00011562
354 *58:16 *298:667 1.89685e-05
355 *63:10 *980:C 2.11084e-05
356 *64:10 *298:667 0
357 *68:10 *980:C 0.00020655
358 *68:10 *298:701 9.70988e-05
359 *70:8 *298:102 0.000173846
360 *70:8 *298:113 3.83041e-05
361 *71:6 *298:102 0.0001249
362 *77:12 *298:72 3.24154e-05
363 *77:12 *298:87 1.33293e-05
364 *80:6 *298:72 4.92935e-05
365 *82:12 *298:667 0
366 *91:8 *298:632 2.11084e-05
367 *91:8 *298:641 3.23663e-05
368 *98:6 *1015:C 4.82919e-05
369 *110:12 *1029:C 2.86623e-05
370 *110:12 *298:365 4.80285e-05
371 *110:12 *298:376 5.21046e-05
372 *119:10 *1037:A2 3.31204e-05
373 *119:10 *298:354 4.82863e-05
374 *124:10 *298:326 0
375 *124:10 *298:547 0
376 *131:12 *298:154 0
377 *133:8 *1051:A2 2.0514e-05
378 *140:12 *1058:A2 0
379 *154:12 *1071:C 1.47347e-05
380 *155:12 *298:789 4.99619e-05
381 *169:6 *298:37 8.65905e-05
382 *171:10 *1086:A2 2.43962e-05
383 *171:10 *298:54 4.45827e-05
384 *187:12 *298:229 0
385 *187:12 *298:244 9.766e-05
386 *194:12 *298:265 0
387 *194:12 *298:269 0
388 *197:6 *1114:A2 8.73389e-06
389 *201:10 *1128:A2 8.5242e-05
390 *201:10 *298:269 0
391 *213:12 *1127:C 2.92496e-05
392 *213:12 *298:294 7.44453e-05
393 *217:10 *298:294 9.50342e-06
394 *223:10 *1142:A2 3.59311e-05
395 *230:12 *1148:C 7.23602e-05
396 *230:12 *298:429 0.000135842
397 *231:12 *298:429 0
398 *231:12 *298:439 4.80285e-05
399 *249:18 *1162:C 0.000239807
400 *251:6 *1170:A2 4.99619e-05
401 *254:10 *298:496 0
402 *265:12 *1183:C 0
403 *266:12 *1183:C 0.000141221
404 *271:12 *1134:C 4.82863e-05
405 *272:12 *298:87 8.49205e-05
406 *272:12 *298:102 0.000201508
407 *273:12 *298:102 0.000212979
408 *274:14 *1092:C 0.000131401
409 *274:14 *1093:A2 0
410 *274:14 *1099:C 0
411 *274:14 *1127:C 2.51397e-05
412 *274:14 *298:10 0.000187766
413 *274:14 *298:250 0
414 *274:14 *298:275 0
415 *276:16 *974:A2 2.24384e-05
416 *276:16 *298:667 0
417 *278:14 *1177:A2 8.40213e-05
418 *279:10 *1148:C 0
419 *279:10 *1162:C 0
420 *279:10 *298:403 0
421 *279:10 *298:429 0
422 *279:10 *298:492 0
423 *279:10 *298:496 0
424 *279:16 *1170:A2 5.30673e-05
425 *280:12 *1142:A2 5.37442e-05
426 *280:12 *298:443 0.000282563
427 *281:12 *298:429 0
428 *282:14 *298:802 0
429 *283:10 *1142:A2 0.000100156
430 *283:10 *298:443 0.000359157
431 *284:10 *298:148 7.18817e-05
432 *284:10 *298:154 0.000533266
433 *285:14 *1121:A2 3.7712e-05
434 *285:14 *298:148 0.00017219
435 *285:14 *298:154 0.000416954
436 *286:12 *1114:A2 4.99619e-05
437 *288:10 *298:135 2.32597e-05
438 *288:10 *298:144 0.000334471
439 *289:18 *1093:A2 2.16306e-05
440 *289:18 *1099:C 0.000308062
441 *289:18 *298:229 0.000195299
442 *292:12 *1086:A2 4.86642e-05
443 *292:12 *298:54 0.000156973
444 *293:18 *1050:C 4.99619e-05
445 *293:18 *298:572 7.86176e-05
446 *294:14 *298:54 6.52265e-05
447 *294:14 *298:63 4.99619e-05
448 *295:14 *298:194 0
449 *295:14 *298:196 0
450 *297:8 *1162:C 0
451 *297:10 *1162:C 0
452 *297:97 *1148:C 1.34361e-05
453 *297:274 *298:54 0.000247561
454 *297:286 *298:37 0
455 *297:296 *298:229 0
456 *297:308 *298:229 0
457 *297:400 *298:384 9.65676e-05
*RES
1 *1217:X *298:10 6.195 
2 *298:10 *298:14 3.14 
3 *298:14 *1093:A2 11.57 
4 *298:14 *298:27 5.625 
5 *298:27 *298:37 11.265 
6 *298:37 *1086:A2 4.665 
7 *298:37 *298:54 9.515 
8 *298:54 *1079:A2 1.6 
9 *298:54 *298:63 3.57 
10 *298:63 *1078:C 1.6 
11 *298:63 *298:72 11.16 
12 *298:72 *995:A2 2.1325 
13 *298:72 *298:87 6.1 
14 *298:87 *994:C 1.6 
15 *298:87 *298:102 8.88 
16 *298:102 *988:A2 1.96 
17 *298:102 *298:113 2.1 
18 *298:113 *987:C 1.6 
19 *298:113 *298:122 9.435 
20 *298:122 *965:A2 3.01 
21 *298:122 *298:135 2.535 
22 *298:135 *964:C 1.6 
23 *298:135 *298:144 5.64 
24 *298:144 *298:148 6.185 
25 *298:148 *298:154 13.61 
26 *298:154 *1121:A2 5.545 
27 *298:154 *1120:C 1.6 
28 *298:148 *1043:C 3.6 
29 *298:144 *1044:A2 1.6 
30 *298:27 *298:186 0.795 
31 *298:186 *298:194 8.78 
32 *298:194 *298:196 6.225 
33 *298:196 *298:204 9.965 
34 *298:204 *1099:C 10.52 
35 *298:204 *298:221 0.615 
36 *298:221 *298:229 8.035 
37 *298:229 *1107:A2 4.48 
38 *298:229 *298:244 7.235 
39 *298:244 *298:250 4.085 
40 *298:250 *1114:A2 4.135 
41 *298:250 *298:265 6.05 
42 *298:265 *298:269 6.44 
43 *298:269 *298:275 4.9175 
44 *298:275 *1127:C 7.5825 
45 *298:275 *298:294 9.6275 
46 *298:294 *1134:C 3.445 
47 *298:294 *298:309 5.735 
48 *298:309 *1135:A2 4.215 
49 *298:309 *298:324 15.835 
50 *298:324 *298:326 3.0375 
51 *298:326 *1037:A2 9.2475 
52 *298:326 *298:345 2.6825 
53 *298:345 *1036:C 1.6 
54 *298:345 *298:354 5.64 
55 *298:354 *1030:A2 1.6 
56 *298:354 *298:365 6.86 
57 *298:365 *1029:C 5.745 
58 *298:365 *298:376 2.4 
59 *298:376 *298:384 17.75 
60 *298:384 *298:390 5.38 
61 *298:390 *1176:C 1.6 
62 *298:390 *298:399 6.33 
63 *298:399 *298:403 6.185 
64 *298:403 *298:405 2 
65 *298:405 *1177:A2 6.88 
66 *298:405 *1155:C 2.05 
67 *298:403 *298:429 8.445 
68 *298:429 *298:439 7.58 
69 *298:439 *298:443 7.715 
70 *298:443 *1141:C 3.6 
71 *298:443 *1142:A2 14.26 
72 *298:439 *1149:A2 1.6 
73 *298:429 *1148:C 4.725 
74 *298:399 *1156:A2 1.6 
75 *298:384 *298:492 6.14 
76 *298:492 *298:496 3.89 
77 *298:496 *1170:A2 3.805 
78 *298:496 *1169:C 1.6 
79 *298:492 *298:516 6.935 
80 *298:516 *1162:C 12.215 
81 *298:516 *1163:A2 1.6 
82 *298:376 *1023:A2 6.465 
83 *298:324 *298:547 5.46 
84 *298:547 *1051:A2 4.395 
85 *298:547 *298:572 6.515 
86 *298:572 *1050:C 2.755 
87 *298:572 *298:583 5.28 
88 *298:583 *298:587 6.185 
89 *298:587 *1016:A2 3.6 
90 *298:587 *298:600 4.485 
91 *298:600 *1015:C 5.085 
92 *298:600 *298:615 7.265 
93 *298:615 *1009:A2 8.645 
94 *298:615 *298:632 4.59 
95 *298:632 *1008:C 1.96 
96 *298:632 *298:641 3.555 
97 *298:641 *298:645 12.05 
98 *298:645 *298:647 2 
99 *298:647 *973:C 1.6 
100 *298:647 *974:A2 4.06 
101 *298:645 *298:667 10.265 
102 *298:667 *298:669 3.9 
103 *298:669 *1001:C 1.6 
104 *298:669 *1002:A2 10.7975 
105 *298:667 *298:701 2.535 
106 *298:701 *981:A2 1.6 
107 *298:701 *980:C 5.53 
108 *298:641 *298:719 4.245 
109 *298:719 *1184:A2 1.96 
110 *298:719 *1183:C 11.87 
111 *298:583 *1022:C 1.6 
112 *298:269 *1128:A2 8.465 
113 *298:265 *1113:C 3.6 
114 *298:244 *1106:C 3.6 
115 *298:221 *1100:A2 1.6 
116 *298:196 *298:780 3.485 
117 *298:780 *1072:A2 1.6 
118 *298:780 *298:789 5.295 
119 *298:789 *1065:A2 1.99375 
120 *298:789 *298:802 8.735 
121 *298:802 *1058:A2 6.285 
122 *298:802 *1057:C 4.05 
123 *298:789 *1064:C 13.19 
124 *298:194 *1071:C 6.825 
125 *298:186 *1085:C 1.6 
126 *298:10 *1092:C 5.235 
*END

*D_NET *299 0.0019705
*CONN
*I *1224:A I *D sky130_fd_sc_hd__buf_1
*I *1140:Q O *D sky130_fd_sc_hd__dfrtp_1
*CAP
1 *1224:A 0.000691829
2 *1140:Q 0.000691829
3 *1137:A *1224:A 0.000118513
4 *1137:B *1224:A 0.000139933
5 *1138:A2 *1224:A 0.000198934
6 *40:39 *1224:A 0.000129465
*RES
1 *1140:Q *1224:A 18.57 
*END

*D_NET *300 0.000376121
*CONN
*I *967:A I *D sky130_fd_sc_hd__xnor2_1
*I *968:LO O *D sky130_fd_sc_hd__conb_1
*CAP
1 *967:A 0.000111568
2 *968:LO 0.000111568
3 *47:31 *967:A 0
4 *279:10 *967:A 0.000141592
5 *297:673 *967:A 1.1392e-05
6 *297:697 *967:A 0
*RES
1 *968:LO *967:A 9.285 
*END

*D_NET *301 0.000674235
*CONN
*I *969:A1 I *D sky130_fd_sc_hd__a21bo_1
*I *970:LO O *D sky130_fd_sc_hd__conb_1
*CAP
1 *969:A1 0.000221769
2 *970:LO 0.000221769
3 *971:CLK *969:A1 0
4 *971:D *969:A1 4.70343e-05
5 *1197:A *969:A1 2.97004e-06
6 *1198:A *969:A1 2.97004e-06
7 *47:40 *969:A1 0
8 *279:10 *969:A1 0.000177723
*RES
1 *970:LO *969:A1 11.835 
*END

*D_NET *302 0.00861987
*CONN
*I *1036:B I *D sky130_fd_sc_hd__nand3_1
*I *1037:A1 I *D sky130_fd_sc_hd__a21o_1
*I *1218:X O *D sky130_fd_sc_hd__buf_1
*CAP
1 *1036:B 0
2 *1037:A1 0.000194046
3 *1218:X 0.00131454
4 *302:18 0.00137079
5 *302:10 0.00249128
6 *302:10 *303:10 0
7 *302:18 *303:10 0
8 *302:18 *303:14 0
9 *949:A *302:18 0
10 *950:A *302:18 0
11 *999:CLK *302:10 0.000290458
12 *1013:CLK *302:10 0
13 *1020:RESET_B *302:18 2.54692e-05
14 *1034:CLK *302:18 0
15 *1034:D *1037:A1 0
16 *1036:A *1037:A1 9.54399e-05
17 *1037:A2 *1037:A1 0.000330642
18 *1037:B1 *1037:A1 0.000271053
19 *1038:A *1037:A1 7.21296e-06
20 *1039:A *302:18 0
21 *1039:B *302:18 0.000158066
22 *1063:D *302:10 0
23 *1063:D *302:18 0
24 *1064:C *302:10 0.000127408
25 *1077:D *302:10 5.20968e-05
26 *43:12 *302:10 7.81876e-05
27 *43:23 *302:10 0.000100308
28 *43:39 *302:10 0.00010141
29 *43:50 *302:10 0.000204367
30 *43:79 *302:10 0
31 *119:10 *302:18 2.0514e-05
32 *138:12 *302:18 0.000366779
33 *293:18 *302:10 0
34 *293:18 *302:18 0.000708503
35 *298:354 *302:18 0.000311294
36 *298:547 *302:18 0
*RES
1 *1218:X *302:10 30.255 
2 *302:10 *302:18 28.715 
3 *302:18 *1037:A1 10.835 
4 *302:18 *1036:B 1.6 
*END

*D_NET *303 0.00752414
*CONN
*I *1029:B I *D sky130_fd_sc_hd__nand3_1
*I *1030:A1 I *D sky130_fd_sc_hd__a21o_1
*I *1219:X O *D sky130_fd_sc_hd__buf_1
*CAP
1 *1029:B 0.000263053
2 *1030:A1 1.87923e-05
3 *1219:X 0.00241021
4 *303:14 0.000570261
5 *303:10 0.00269862
6 *303:10 *1023:A1 0
7 *303:10 *305:10 0
8 *949:A *303:10 0
9 *950:A *303:10 0
10 *950:A *303:14 2.42192e-05
11 *999:CLK *303:10 0
12 *999:D *303:10 4.70343e-05
13 *1013:RESET_B *303:10 0.00011852
14 *1020:RESET_B *303:10 0
15 *1023:A2 *303:14 0
16 *1026:A1 *303:10 0
17 *1026:A1 *303:14 0
18 *1027:D *303:10 0
19 *1029:A *1029:B 2.55763e-05
20 *1029:C *303:14 0
21 *1030:B1 *303:14 8.53113e-06
22 *1032:B *1029:B 0.000105841
23 *1032:B *303:14 0
24 *1033:A1 *1029:B 9.37731e-05
25 *1035:RESET_B *1029:B 1.34503e-05
26 *1063:D *303:10 4.92284e-05
27 *1070:D *303:10 0.000293733
28 *43:39 *303:10 0
29 *43:50 *303:10 0
30 *103:10 *303:10 0
31 *138:12 *303:10 0
32 *297:171 *303:10 0.00013532
33 *297:173 *303:10 3.76596e-05
34 *297:175 *303:10 6.28765e-05
35 *297:181 *303:10 0.000249829
36 *298:354 *1029:B 1.85674e-05
37 *298:365 *1029:B 5.9584e-05
38 *298:365 *1030:A1 2.75145e-05
39 *298:376 *303:14 0
40 *298:587 *303:10 0
41 *298:600 *303:10 0.000106356
42 *298:615 *303:10 8.55971e-05
43 *302:10 *303:10 0
44 *302:18 *303:10 0
45 *302:18 *303:14 0
*RES
1 *1219:X *303:10 48.0225 
2 *303:10 *303:14 6.6875 
3 *303:14 *1030:A1 2.05 
4 *303:14 *1029:B 10.415 
*END

*D_NET *304 0.00717108
*CONN
*I *1022:B I *D sky130_fd_sc_hd__nand3_1
*I *1023:A1 I *D sky130_fd_sc_hd__a21o_1
*I *1220:X O *D sky130_fd_sc_hd__buf_1
*CAP
1 *1022:B 6.8923e-05
2 *1023:A1 0.000383236
3 *1220:X 0.00197898
4 *304:10 0.00243114
5 *304:10 *1008:B 0
6 *304:10 *305:10 0.00111372
7 *304:10 *306:14 0
8 *997:B *304:10 0
9 *998:A1 *304:10 0.000141606
10 *1000:D *304:10 4.7043e-05
11 *1009:A2 *304:10 5.72091e-05
12 *1016:B1 *304:10 0.000139231
13 *1017:B *304:10 0.00010052
14 *1018:B *304:10 0
15 *1019:B1_N *304:10 7.23533e-05
16 *1022:A *1022:B 3.95724e-05
17 *1023:A2 *1023:A1 4.58257e-05
18 *1023:B1 *1023:A1 1.91902e-05
19 *1024:A *1023:A1 2.49909e-05
20 *1026:A1 *1023:A1 0.00011852
21 *1026:A2 *1023:A1 4.82919e-05
22 *77:12 *304:10 0
23 *87:12 *304:10 0
24 *96:12 *304:10 0
25 *99:10 *304:10 2.60986e-05
26 *103:10 *1022:B 1.08758e-05
27 *103:10 *1023:A1 0.000139933
28 *105:12 *1023:A1 0.000163821
29 *105:12 *304:10 0
30 *297:474 *304:10 0
31 *298:587 *304:10 0
32 *303:10 *1023:A1 0
*RES
1 *1220:X *304:10 44.79 
2 *304:10 *1023:A1 14.89 
3 *304:10 *1022:B 4.755 
*END

*D_NET *305 0.00547482
*CONN
*I *1015:B I *D sky130_fd_sc_hd__nand3_1
*I *1016:A1 I *D sky130_fd_sc_hd__a21o_1
*I *1221:X O *D sky130_fd_sc_hd__buf_1
*CAP
1 *1015:B 0
2 *1016:A1 8.98769e-05
3 *1221:X 0.00162415
4 *305:10 0.00171403
5 *998:A1 *305:10 8.08439e-05
6 *1015:A *1016:A1 0.000229217
7 *1016:B1 *1016:A1 4.03082e-05
8 *1017:B *1016:A1 0.000177568
9 *1017:B *305:10 9.50342e-06
10 *1220:A *305:10 5.56629e-05
11 *1221:A *305:10 0
12 *99:10 *1016:A1 0.000117825
13 *298:587 *1016:A1 9.50342e-06
14 *298:600 *1016:A1 0.000112307
15 *298:615 *305:10 0.000100308
16 *303:10 *305:10 0
17 *304:10 *305:10 0.00111372
*RES
1 *1221:X *305:10 38.685 
2 *305:10 *1016:A1 7.785 
3 *305:10 *1015:B 3.6 
*END

*D_NET *306 0.00491172
*CONN
*I *1009:A1 I *D sky130_fd_sc_hd__a21o_1
*I *1008:B I *D sky130_fd_sc_hd__nand3_1
*I *1222:X O *D sky130_fd_sc_hd__buf_1
*CAP
1 *1009:A1 0
2 *1008:B 0.000232762
3 *1222:X 0.00169094
4 *306:14 0.0019237
5 *306:14 *1002:A1 0
6 *306:14 *307:10 0
7 *994:A *306:14 4.74882e-05
8 *995:A1 *306:14 1.65105e-05
9 *997:B *306:14 5.42646e-05
10 *1000:D *306:14 0
11 *1001:A *306:14 0
12 *1002:A2 *306:14 3.98349e-05
13 *1003:B *306:14 0.000118504
14 *1007:D *306:14 0
15 *1008:A *1008:B 0.000280485
16 *1008:A *306:14 5.53249e-06
17 *1009:A2 *1008:B 3.68596e-05
18 *1013:D *306:14 0
19 *39:10 *306:14 0
20 *39:40 *306:14 0
21 *77:12 *306:14 8.08153e-06
22 *78:10 *306:14 0.000140912
23 *85:10 *306:14 5.7344e-05
24 *87:12 *306:14 0.00011852
25 *89:10 *306:14 0
26 *94:10 *306:14 7.34286e-05
27 *298:632 *1008:B 6.6564e-05
28 *304:10 *1008:B 0
29 *304:10 *306:14 0
*RES
1 *1222:X *306:14 33.45 
2 *306:14 *1008:B 8.1 
3 *306:14 *1009:A1 3.6 
*END

*D_NET *307 0.0020801
*CONN
*I *1001:B I *D sky130_fd_sc_hd__nand3_1
*I *1002:A1 I *D sky130_fd_sc_hd__a21o_1
*I *1223:X O *D sky130_fd_sc_hd__clkbuf_1
*CAP
1 *1001:B 1.01827e-05
2 *1002:A1 0.000121981
3 *1223:X 0.000779578
4 *307:10 0.000911742
5 *992:CLK *307:10 0
6 *994:A *307:10 6.43553e-05
7 *995:A1 *307:10 2.54692e-05
8 *1001:A *1001:B 8.74566e-06
9 *1001:A *307:10 5.16348e-05
10 *1002:A2 *1001:B 1.84246e-05
11 *1002:A2 *1002:A1 4.8616e-05
12 *1002:A2 *307:10 0
13 *84:8 *1002:A1 8.53113e-06
14 *85:10 *1002:A1 2.97004e-06
15 *298:87 *307:10 2.78732e-05
16 *306:14 *1002:A1 0
17 *306:14 *307:10 0
*RES
1 *1223:X *307:10 16.0125 
2 *307:10 *1002:A1 5.3325 
3 *307:10 *1001:B 3.8775 
*END
