*SPEF "ieee 1481-1999"
*DESIGN "spm"
*DATE "04:23:40 Thursday March 27, 2025"
*VENDOR "The OpenROAD Project"
*PROGRAM "OpenROAD"
*VERSION "edf00dff99f6c40d67a30c0e22a8191c5d2ed9d6"
*DESIGN_FLOW "NAME_SCOPE LOCAL" "PIN_CAP NONE"
*DIVIDER /
*DELIMITER :
*BUS_DELIMITER []
*T_UNIT 1 NS
*C_UNIT 1 PF
*R_UNIT 1 OHM
*L_UNIT 1 HENRY

*NAME_MAP
*1 a[0]
*2 a[10]
*3 a[11]
*4 a[12]
*5 a[13]
*6 a[14]
*7 a[15]
*8 a[16]
*9 a[17]
*10 a[18]
*11 a[19]
*12 a[1]
*13 a[20]
*14 a[21]
*15 a[22]
*16 a[23]
*17 a[24]
*18 a[25]
*19 a[26]
*20 a[27]
*21 a[28]
*22 a[29]
*23 a[2]
*24 a[30]
*25 a[31]
*26 a[3]
*27 a[4]
*28 a[5]
*29 a[6]
*30 a[7]
*31 a[8]
*32 a[9]
*33 clk
*34 rst
*37 x
*38 y
*39 clknet_0_clk
*40 clknet_3_0__leaf_clk
*41 clknet_3_1__leaf_clk
*42 clknet_3_2__leaf_clk
*43 clknet_3_3__leaf_clk
*44 clknet_3_4__leaf_clk
*45 clknet_3_5__leaf_clk
*46 clknet_3_6__leaf_clk
*47 clknet_3_7__leaf_clk
*48 dsa\[0\]\._0_
*49 dsa\[0\]\._1_
*50 dsa\[0\]\._2_
*51 dsa\[0\]\.last_carry
*52 dsa\[0\]\.last_carry_next
*53 dsa\[0\]\.y_out
*54 dsa\[0\]\.y_out_next
*55 dsa\[10\]\._0_
*56 dsa\[10\]\._1_
*57 dsa\[10\]\._2_
*58 dsa\[10\]\.last_carry
*59 dsa\[10\]\.last_carry_next
*60 dsa\[10\]\.y_in
*61 dsa\[10\]\.y_out
*62 dsa\[10\]\.y_out_next
*63 dsa\[11\]\._0_
*64 dsa\[11\]\._1_
*65 dsa\[11\]\._2_
*66 dsa\[11\]\.last_carry
*67 dsa\[11\]\.last_carry_next
*68 dsa\[11\]\.y_out
*69 dsa\[11\]\.y_out_next
*70 dsa\[12\]\._0_
*71 dsa\[12\]\._1_
*72 dsa\[12\]\._2_
*73 dsa\[12\]\.last_carry
*74 dsa\[12\]\.last_carry_next
*75 dsa\[12\]\.y_out
*76 dsa\[12\]\.y_out_next
*77 dsa\[13\]\._0_
*78 dsa\[13\]\._1_
*79 dsa\[13\]\._2_
*80 dsa\[13\]\.last_carry
*81 dsa\[13\]\.last_carry_next
*82 dsa\[13\]\.y_out
*83 dsa\[13\]\.y_out_next
*84 dsa\[14\]\._0_
*85 dsa\[14\]\._1_
*86 dsa\[14\]\._2_
*87 dsa\[14\]\.last_carry
*88 dsa\[14\]\.last_carry_next
*89 dsa\[14\]\.y_out
*90 dsa\[14\]\.y_out_next
*91 dsa\[15\]\._0_
*92 dsa\[15\]\._1_
*93 dsa\[15\]\._2_
*94 dsa\[15\]\.last_carry
*95 dsa\[15\]\.last_carry_next
*96 dsa\[15\]\.y_out
*97 dsa\[15\]\.y_out_next
*98 dsa\[16\]\._0_
*99 dsa\[16\]\._1_
*100 dsa\[16\]\._2_
*101 dsa\[16\]\.last_carry
*102 dsa\[16\]\.last_carry_next
*103 dsa\[16\]\.y_out
*104 dsa\[16\]\.y_out_next
*105 dsa\[17\]\._0_
*106 dsa\[17\]\._1_
*107 dsa\[17\]\._2_
*108 dsa\[17\]\.last_carry
*109 dsa\[17\]\.last_carry_next
*110 dsa\[17\]\.y_out
*111 dsa\[17\]\.y_out_next
*112 dsa\[18\]\._0_
*113 dsa\[18\]\._1_
*114 dsa\[18\]\._2_
*115 dsa\[18\]\.last_carry
*116 dsa\[18\]\.last_carry_next
*117 dsa\[18\]\.y_out
*118 dsa\[18\]\.y_out_next
*119 dsa\[19\]\._0_
*120 dsa\[19\]\._1_
*121 dsa\[19\]\._2_
*122 dsa\[19\]\.last_carry
*123 dsa\[19\]\.last_carry_next
*124 dsa\[19\]\.y_out
*125 dsa\[19\]\.y_out_next
*126 dsa\[1\]\._0_
*127 dsa\[1\]\._1_
*128 dsa\[1\]\._2_
*129 dsa\[1\]\.last_carry
*130 dsa\[1\]\.last_carry_next
*131 dsa\[1\]\.y_out
*132 dsa\[1\]\.y_out_next
*133 dsa\[20\]\._0_
*134 dsa\[20\]\._1_
*135 dsa\[20\]\._2_
*136 dsa\[20\]\.last_carry
*137 dsa\[20\]\.last_carry_next
*138 dsa\[20\]\.y_out
*139 dsa\[20\]\.y_out_next
*140 dsa\[21\]\._0_
*141 dsa\[21\]\._1_
*142 dsa\[21\]\._2_
*143 dsa\[21\]\.last_carry
*144 dsa\[21\]\.last_carry_next
*145 dsa\[21\]\.y_out
*146 dsa\[21\]\.y_out_next
*147 dsa\[22\]\._0_
*148 dsa\[22\]\._1_
*149 dsa\[22\]\._2_
*150 dsa\[22\]\.last_carry
*151 dsa\[22\]\.last_carry_next
*152 dsa\[22\]\.y_out
*153 dsa\[22\]\.y_out_next
*154 dsa\[23\]\._0_
*155 dsa\[23\]\._1_
*156 dsa\[23\]\._2_
*157 dsa\[23\]\.last_carry
*158 dsa\[23\]\.last_carry_next
*159 dsa\[23\]\.y_out
*160 dsa\[23\]\.y_out_next
*161 dsa\[24\]\._0_
*162 dsa\[24\]\._1_
*163 dsa\[24\]\._2_
*164 dsa\[24\]\.last_carry
*165 dsa\[24\]\.last_carry_next
*166 dsa\[24\]\.y_out
*167 dsa\[24\]\.y_out_next
*168 dsa\[25\]\._0_
*169 dsa\[25\]\._1_
*170 dsa\[25\]\._2_
*171 dsa\[25\]\.last_carry
*172 dsa\[25\]\.last_carry_next
*173 dsa\[25\]\.y_out
*174 dsa\[25\]\.y_out_next
*175 dsa\[26\]\._0_
*176 dsa\[26\]\._1_
*177 dsa\[26\]\._2_
*178 dsa\[26\]\.last_carry
*179 dsa\[26\]\.last_carry_next
*180 dsa\[26\]\.y_out
*181 dsa\[26\]\.y_out_next
*182 dsa\[27\]\._0_
*183 dsa\[27\]\._1_
*184 dsa\[27\]\._2_
*185 dsa\[27\]\.last_carry
*186 dsa\[27\]\.last_carry_next
*187 dsa\[27\]\.y_out
*188 dsa\[27\]\.y_out_next
*189 dsa\[28\]\._0_
*190 dsa\[28\]\._1_
*191 dsa\[28\]\._2_
*192 dsa\[28\]\.last_carry
*193 dsa\[28\]\.last_carry_next
*194 dsa\[28\]\.y_out
*195 dsa\[28\]\.y_out_next
*196 dsa\[29\]\._0_
*197 dsa\[29\]\._1_
*198 dsa\[29\]\._2_
*199 dsa\[29\]\.last_carry
*200 dsa\[29\]\.last_carry_next
*201 dsa\[29\]\.y_out
*202 dsa\[29\]\.y_out_next
*203 dsa\[2\]\._0_
*204 dsa\[2\]\._1_
*205 dsa\[2\]\._2_
*206 dsa\[2\]\.last_carry
*207 dsa\[2\]\.last_carry_next
*208 dsa\[2\]\.y_out
*209 dsa\[2\]\.y_out_next
*210 dsa\[30\]\._0_
*211 dsa\[30\]\._1_
*212 dsa\[30\]\._2_
*213 dsa\[30\]\.last_carry
*214 dsa\[30\]\.last_carry_next
*215 dsa\[30\]\.y_out
*216 dsa\[30\]\.y_out_next
*217 dsa\[31\]\._0_
*218 dsa\[31\]\._1_
*219 dsa\[31\]\._2_
*220 dsa\[31\]\.last_carry
*221 dsa\[31\]\.last_carry_next
*222 dsa\[31\]\.y_out_next
*223 dsa\[3\]\._0_
*224 dsa\[3\]\._1_
*225 dsa\[3\]\._2_
*226 dsa\[3\]\.last_carry
*227 dsa\[3\]\.last_carry_next
*228 dsa\[3\]\.y_out
*229 dsa\[3\]\.y_out_next
*230 dsa\[4\]\._0_
*231 dsa\[4\]\._1_
*232 dsa\[4\]\._2_
*233 dsa\[4\]\.last_carry
*234 dsa\[4\]\.last_carry_next
*235 dsa\[4\]\.y_out
*236 dsa\[4\]\.y_out_next
*237 dsa\[5\]\._0_
*238 dsa\[5\]\._1_
*239 dsa\[5\]\._2_
*240 dsa\[5\]\.last_carry
*241 dsa\[5\]\.last_carry_next
*242 dsa\[5\]\.y_out
*243 dsa\[5\]\.y_out_next
*244 dsa\[6\]\._0_
*245 dsa\[6\]\._1_
*246 dsa\[6\]\._2_
*247 dsa\[6\]\.last_carry
*248 dsa\[6\]\.last_carry_next
*249 dsa\[6\]\.y_out
*250 dsa\[6\]\.y_out_next
*251 dsa\[7\]\._0_
*252 dsa\[7\]\._1_
*253 dsa\[7\]\._2_
*254 dsa\[7\]\.last_carry
*255 dsa\[7\]\.last_carry_next
*256 dsa\[7\]\.y_out
*257 dsa\[7\]\.y_out_next
*258 dsa\[8\]\._0_
*259 dsa\[8\]\._1_
*260 dsa\[8\]\._2_
*261 dsa\[8\]\.last_carry
*262 dsa\[8\]\.last_carry_next
*263 dsa\[8\]\.y_out
*264 dsa\[8\]\.y_out_next
*265 dsa\[9\]\._0_
*266 dsa\[9\]\._1_
*267 dsa\[9\]\._2_
*268 dsa\[9\]\.last_carry
*269 dsa\[9\]\.last_carry_next
*270 dsa\[9\]\.y_out_next
*271 net1
*272 net10
*273 net11
*274 net12
*275 net13
*276 net14
*277 net15
*278 net16
*279 net17
*280 net18
*281 net19
*282 net2
*283 net20
*284 net21
*285 net22
*286 net23
*287 net24
*288 net25
*289 net26
*290 net27
*291 net28
*292 net29
*293 net3
*294 net30
*295 net31
*296 net32
*297 net33
*298 net34
*299 net35
*300 net36
*301 net37
*302 net4
*303 net5
*304 net6
*305 net7
*306 net8
*307 net9
*308 FILLER_0_109
*309 FILLER_0_113
*310 FILLER_0_125
*311 FILLER_0_137
*312 FILLER_0_141
*313 FILLER_0_145
*314 FILLER_0_15
*315 FILLER_0_162
*316 FILLER_0_169
*317 FILLER_0_181
*318 FILLER_0_27
*319 FILLER_0_29
*320 FILLER_0_3
*321 FILLER_0_41
*322 FILLER_0_53
*323 FILLER_0_57
*324 FILLER_0_69
*325 FILLER_0_81
*326 FILLER_0_85
*327 FILLER_0_97
*328 FILLER_10_137
*329 FILLER_10_141
*330 FILLER_10_149
*331 FILLER_10_159
*332 FILLER_10_26
*333 FILLER_10_36
*334 FILLER_10_44
*335 FILLER_10_57
*336 FILLER_10_69
*337 FILLER_10_81
*338 FILLER_10_89
*339 FILLER_11_105
*340 FILLER_11_11
*341 FILLER_11_111
*342 FILLER_11_113
*343 FILLER_11_131
*344 FILLER_11_167
*345 FILLER_11_176
*346 FILLER_11_182
*347 FILLER_11_3
*348 FILLER_11_31
*349 FILLER_11_39
*350 FILLER_11_46
*351 FILLER_11_54
*352 FILLER_11_57
*353 FILLER_11_69
*354 FILLER_11_81
*355 FILLER_11_93
*356 FILLER_12_127
*357 FILLER_12_139
*358 FILLER_12_141
*359 FILLER_12_15
*360 FILLER_12_160
*361 FILLER_12_27
*362 FILLER_12_29
*363 FILLER_12_3
*364 FILLER_12_33
*365 FILLER_12_74
*366 FILLER_12_82
*367 FILLER_12_91
*368 FILLER_12_99
*369 FILLER_13_100
*370 FILLER_13_113
*371 FILLER_13_15
*372 FILLER_13_167
*373 FILLER_13_169
*374 FILLER_13_181
*375 FILLER_13_26
*376 FILLER_13_3
*377 FILLER_13_54
*378 FILLER_13_57
*379 FILLER_14_104
*380 FILLER_14_116
*381 FILLER_14_128
*382 FILLER_14_141
*383 FILLER_14_153
*384 FILLER_14_158
*385 FILLER_14_170
*386 FILLER_14_182
*387 FILLER_14_27
*388 FILLER_14_32
*389 FILLER_14_44
*390 FILLER_14_56
*391 FILLER_14_68
*392 FILLER_14_80
*393 FILLER_14_92
*394 FILLER_14_96
*395 FILLER_15_101
*396 FILLER_15_109
*397 FILLER_15_113
*398 FILLER_15_125
*399 FILLER_15_133
*400 FILLER_15_145
*401 FILLER_15_15
*402 FILLER_15_157
*403 FILLER_15_165
*404 FILLER_15_169
*405 FILLER_15_181
*406 FILLER_15_23
*407 FILLER_15_3
*408 FILLER_15_31
*409 FILLER_15_52
*410 FILLER_15_57
*411 FILLER_15_69
*412 FILLER_15_81
*413 FILLER_15_93
*414 FILLER_16_108
*415 FILLER_16_11
*416 FILLER_16_148
*417 FILLER_16_160
*418 FILLER_16_180
*419 FILLER_16_25
*420 FILLER_16_29
*421 FILLER_16_3
*422 FILLER_16_41
*423 FILLER_16_71
*424 FILLER_16_78
*425 FILLER_16_85
*426 FILLER_16_93
*427 FILLER_17_113
*428 FILLER_17_125
*429 FILLER_17_133
*430 FILLER_17_145
*431 FILLER_17_167
*432 FILLER_17_33
*433 FILLER_17_45
*434 FILLER_17_53
*435 FILLER_17_57
*436 FILLER_18_120
*437 FILLER_18_132
*438 FILLER_18_161
*439 FILLER_18_21
*440 FILLER_18_27
*441 FILLER_18_29
*442 FILLER_18_3
*443 FILLER_18_41
*444 FILLER_18_53
*445 FILLER_18_57
*446 FILLER_18_62
*447 FILLER_18_74
*448 FILLER_18_82
*449 FILLER_18_85
*450 FILLER_18_97
*451 FILLER_19_103
*452 FILLER_19_111
*453 FILLER_19_113
*454 FILLER_19_127
*455 FILLER_19_139
*456 FILLER_19_15
*457 FILLER_19_151
*458 FILLER_19_163
*459 FILLER_19_167
*460 FILLER_19_169
*461 FILLER_19_181
*462 FILLER_19_23
*463 FILLER_19_3
*464 FILLER_19_45
*465 FILLER_19_53
*466 FILLER_19_65
*467 FILLER_19_91
*468 FILLER_1_105
*469 FILLER_1_111
*470 FILLER_1_113
*471 FILLER_1_125
*472 FILLER_1_137
*473 FILLER_1_149
*474 FILLER_1_15
*475 FILLER_1_161
*476 FILLER_1_167
*477 FILLER_1_169
*478 FILLER_1_181
*479 FILLER_1_27
*480 FILLER_1_3
*481 FILLER_1_39
*482 FILLER_1_51
*483 FILLER_1_55
*484 FILLER_1_57
*485 FILLER_1_69
*486 FILLER_1_81
*487 FILLER_1_93
*488 FILLER_20_106
*489 FILLER_20_114
*490 FILLER_20_132
*491 FILLER_20_141
*492 FILLER_20_162
*493 FILLER_20_166
*494 FILLER_20_178
*495 FILLER_20_182
*496 FILLER_20_26
*497 FILLER_20_29
*498 FILLER_20_3
*499 FILLER_20_37
*500 FILLER_20_59
*501 FILLER_20_72
*502 FILLER_20_85
*503 FILLER_21_105
*504 FILLER_21_111
*505 FILLER_21_113
*506 FILLER_21_119
*507 FILLER_21_128
*508 FILLER_21_152
*509 FILLER_21_166
*510 FILLER_21_176
*511 FILLER_21_182
*512 FILLER_21_30
*513 FILLER_21_42
*514 FILLER_21_49
*515 FILLER_21_55
*516 FILLER_21_66
*517 FILLER_21_72
*518 FILLER_21_93
*519 FILLER_22_100
*520 FILLER_22_108
*521 FILLER_22_135
*522 FILLER_22_139
*523 FILLER_22_141
*524 FILLER_22_145
*525 FILLER_22_15
*526 FILLER_22_176
*527 FILLER_22_182
*528 FILLER_22_23
*529 FILLER_22_27
*530 FILLER_22_29
*531 FILLER_22_3
*532 FILLER_22_37
*533 FILLER_22_59
*534 FILLER_22_63
*535 FILLER_22_85
*536 FILLER_23_110
*537 FILLER_23_136
*538 FILLER_23_144
*539 FILLER_23_15
*540 FILLER_23_152
*541 FILLER_23_164
*542 FILLER_23_169
*543 FILLER_23_181
*544 FILLER_23_23
*545 FILLER_23_3
*546 FILLER_24_105
*547 FILLER_24_117
*548 FILLER_24_138
*549 FILLER_24_161
*550 FILLER_24_23
*551 FILLER_24_27
*552 FILLER_24_29
*553 FILLER_24_41
*554 FILLER_24_48
*555 FILLER_24_54
*556 FILLER_24_75
*557 FILLER_24_83
*558 FILLER_24_85
*559 FILLER_24_93
*560 FILLER_25_105
*561 FILLER_25_111
*562 FILLER_25_113
*563 FILLER_25_125
*564 FILLER_25_137
*565 FILLER_25_14
*566 FILLER_25_145
*567 FILLER_25_176
*568 FILLER_25_182
*569 FILLER_25_3
*570 FILLER_25_36
*571 FILLER_25_48
*572 FILLER_25_57
*573 FILLER_25_69
*574 FILLER_25_81
*575 FILLER_25_93
*576 FILLER_26_109
*577 FILLER_26_117
*578 FILLER_26_121
*579 FILLER_26_133
*580 FILLER_26_139
*581 FILLER_26_141
*582 FILLER_26_150
*583 FILLER_26_162
*584 FILLER_26_170
*585 FILLER_26_174
*586 FILLER_26_182
*587 FILLER_26_19
*588 FILLER_26_27
*589 FILLER_26_29
*590 FILLER_26_35
*591 FILLER_26_43
*592 FILLER_26_55
*593 FILLER_26_85
*594 FILLER_27_104
*595 FILLER_27_140
*596 FILLER_27_149
*597 FILLER_27_15
*598 FILLER_27_161
*599 FILLER_27_167
*600 FILLER_27_181
*601 FILLER_27_27
*602 FILLER_27_3
*603 FILLER_27_35
*604 FILLER_27_45
*605 FILLER_27_53
*606 FILLER_27_68
*607 FILLER_27_80
*608 FILLER_27_84
*609 FILLER_27_92
*610 FILLER_28_102
*611 FILLER_28_123
*612 FILLER_28_135
*613 FILLER_28_139
*614 FILLER_28_152
*615 FILLER_28_16
*616 FILLER_28_180
*617 FILLER_28_24
*618 FILLER_28_29
*619 FILLER_28_3
*620 FILLER_28_46
*621 FILLER_28_67
*622 FILLER_28_7
*623 FILLER_28_79
*624 FILLER_28_83
*625 FILLER_28_96
*626 FILLER_29_105
*627 FILLER_29_111
*628 FILLER_29_131
*629 FILLER_29_163
*630 FILLER_29_167
*631 FILLER_29_169
*632 FILLER_29_178
*633 FILLER_29_43
*634 FILLER_29_55
*635 FILLER_29_57
*636 FILLER_29_70
*637 FILLER_29_74
*638 FILLER_2_109
*639 FILLER_2_121
*640 FILLER_2_133
*641 FILLER_2_139
*642 FILLER_2_141
*643 FILLER_2_15
*644 FILLER_2_153
*645 FILLER_2_165
*646 FILLER_2_177
*647 FILLER_2_27
*648 FILLER_2_29
*649 FILLER_2_3
*650 FILLER_2_41
*651 FILLER_2_53
*652 FILLER_2_65
*653 FILLER_2_77
*654 FILLER_2_83
*655 FILLER_2_85
*656 FILLER_2_97
*657 FILLER_30_10
*658 FILLER_30_100
*659 FILLER_30_106
*660 FILLER_30_113
*661 FILLER_30_118
*662 FILLER_30_124
*663 FILLER_30_130
*664 FILLER_30_136
*665 FILLER_30_144
*666 FILLER_30_154
*667 FILLER_30_160
*668 FILLER_30_166
*669 FILLER_30_172
*670 FILLER_30_178
*671 FILLER_30_24
*672 FILLER_30_29
*673 FILLER_30_34
*674 FILLER_30_40
*675 FILLER_30_46
*676 FILLER_30_52
*677 FILLER_30_6
*678 FILLER_30_60
*679 FILLER_30_64
*680 FILLER_30_70
*681 FILLER_30_76
*682 FILLER_30_82
*683 FILLER_30_88
*684 FILLER_30_94
*685 FILLER_3_105
*686 FILLER_3_111
*687 FILLER_3_113
*688 FILLER_3_125
*689 FILLER_3_137
*690 FILLER_3_149
*691 FILLER_3_15
*692 FILLER_3_161
*693 FILLER_3_167
*694 FILLER_3_169
*695 FILLER_3_181
*696 FILLER_3_3
*697 FILLER_3_39
*698 FILLER_3_51
*699 FILLER_3_55
*700 FILLER_3_57
*701 FILLER_3_69
*702 FILLER_3_81
*703 FILLER_3_93
*704 FILLER_4_105
*705 FILLER_4_111
*706 FILLER_4_132
*707 FILLER_4_141
*708 FILLER_4_15
*709 FILLER_4_159
*710 FILLER_4_27
*711 FILLER_4_29
*712 FILLER_4_3
*713 FILLER_4_41
*714 FILLER_4_53
*715 FILLER_4_57
*716 FILLER_4_67
*717 FILLER_4_79
*718 FILLER_4_93
*719 FILLER_5_113
*720 FILLER_5_119
*721 FILLER_5_128
*722 FILLER_5_166
*723 FILLER_5_169
*724 FILLER_5_181
*725 FILLER_5_22
*726 FILLER_5_3
*727 FILLER_5_34
*728 FILLER_5_65
*729 FILLER_5_91
*730 FILLER_6_10
*731 FILLER_6_105
*732 FILLER_6_117
*733 FILLER_6_131
*734 FILLER_6_139
*735 FILLER_6_141
*736 FILLER_6_149
*737 FILLER_6_161
*738 FILLER_6_22
*739 FILLER_6_29
*740 FILLER_6_51
*741 FILLER_6_6
*742 FILLER_6_64
*743 FILLER_6_76
*744 FILLER_6_85
*745 FILLER_6_93
*746 FILLER_7_113
*747 FILLER_7_119
*748 FILLER_7_128
*749 FILLER_7_140
*750 FILLER_7_152
*751 FILLER_7_164
*752 FILLER_7_169
*753 FILLER_7_181
*754 FILLER_7_49
*755 FILLER_7_55
*756 FILLER_7_57
*757 FILLER_7_69
*758 FILLER_7_81
*759 FILLER_7_89
*760 FILLER_8_103
*761 FILLER_8_135
*762 FILLER_8_139
*763 FILLER_8_141
*764 FILLER_8_149
*765 FILLER_8_15
*766 FILLER_8_164
*767 FILLER_8_176
*768 FILLER_8_182
*769 FILLER_8_20
*770 FILLER_8_29
*771 FILLER_8_3
*772 FILLER_8_37
*773 FILLER_8_78
*774 FILLER_8_85
*775 FILLER_9_109
*776 FILLER_9_113
*777 FILLER_9_15
*778 FILLER_9_165
*779 FILLER_9_169
*780 FILLER_9_181
*781 FILLER_9_27
*782 FILLER_9_3
*783 FILLER_9_39
*784 FILLER_9_51
*785 FILLER_9_55
*786 FILLER_9_57
*787 PHY_EDGE_ROW_0_Left_31
*788 PHY_EDGE_ROW_0_Right_0
*789 PHY_EDGE_ROW_10_Left_41
*790 PHY_EDGE_ROW_10_Right_10
*791 PHY_EDGE_ROW_11_Left_42
*792 PHY_EDGE_ROW_11_Right_11
*793 PHY_EDGE_ROW_12_Left_43
*794 PHY_EDGE_ROW_12_Right_12
*795 PHY_EDGE_ROW_13_Left_44
*796 PHY_EDGE_ROW_13_Right_13
*797 PHY_EDGE_ROW_14_Left_45
*798 PHY_EDGE_ROW_14_Right_14
*799 PHY_EDGE_ROW_15_Left_46
*800 PHY_EDGE_ROW_15_Right_15
*801 PHY_EDGE_ROW_16_Left_47
*802 PHY_EDGE_ROW_16_Right_16
*803 PHY_EDGE_ROW_17_Left_48
*804 PHY_EDGE_ROW_17_Right_17
*805 PHY_EDGE_ROW_18_Left_49
*806 PHY_EDGE_ROW_18_Right_18
*807 PHY_EDGE_ROW_19_Left_50
*808 PHY_EDGE_ROW_19_Right_19
*809 PHY_EDGE_ROW_1_Left_32
*810 PHY_EDGE_ROW_1_Right_1
*811 PHY_EDGE_ROW_20_Left_51
*812 PHY_EDGE_ROW_20_Right_20
*813 PHY_EDGE_ROW_21_Left_52
*814 PHY_EDGE_ROW_21_Right_21
*815 PHY_EDGE_ROW_22_Left_53
*816 PHY_EDGE_ROW_22_Right_22
*817 PHY_EDGE_ROW_23_Left_54
*818 PHY_EDGE_ROW_23_Right_23
*819 PHY_EDGE_ROW_24_Left_55
*820 PHY_EDGE_ROW_24_Right_24
*821 PHY_EDGE_ROW_25_Left_56
*822 PHY_EDGE_ROW_25_Right_25
*823 PHY_EDGE_ROW_26_Left_57
*824 PHY_EDGE_ROW_26_Right_26
*825 PHY_EDGE_ROW_27_Left_58
*826 PHY_EDGE_ROW_27_Right_27
*827 PHY_EDGE_ROW_28_Left_59
*828 PHY_EDGE_ROW_28_Right_28
*829 PHY_EDGE_ROW_29_Left_60
*830 PHY_EDGE_ROW_29_Right_29
*831 PHY_EDGE_ROW_2_Left_33
*832 PHY_EDGE_ROW_2_Right_2
*833 PHY_EDGE_ROW_30_Left_61
*834 PHY_EDGE_ROW_30_Right_30
*835 PHY_EDGE_ROW_3_Left_34
*836 PHY_EDGE_ROW_3_Right_3
*837 PHY_EDGE_ROW_4_Left_35
*838 PHY_EDGE_ROW_4_Right_4
*839 PHY_EDGE_ROW_5_Left_36
*840 PHY_EDGE_ROW_5_Right_5
*841 PHY_EDGE_ROW_6_Left_37
*842 PHY_EDGE_ROW_6_Right_6
*843 PHY_EDGE_ROW_7_Left_38
*844 PHY_EDGE_ROW_7_Right_7
*845 PHY_EDGE_ROW_8_Left_39
*846 PHY_EDGE_ROW_8_Right_8
*847 PHY_EDGE_ROW_9_Left_40
*848 PHY_EDGE_ROW_9_Right_9
*849 TAP_TAPCELL_ROW_0_62
*850 TAP_TAPCELL_ROW_0_63
*851 TAP_TAPCELL_ROW_0_64
*852 TAP_TAPCELL_ROW_0_65
*853 TAP_TAPCELL_ROW_0_66
*854 TAP_TAPCELL_ROW_0_67
*855 TAP_TAPCELL_ROW_10_95
*856 TAP_TAPCELL_ROW_10_96
*857 TAP_TAPCELL_ROW_10_97
*858 TAP_TAPCELL_ROW_11_100
*859 TAP_TAPCELL_ROW_11_98
*860 TAP_TAPCELL_ROW_11_99
*861 TAP_TAPCELL_ROW_12_101
*862 TAP_TAPCELL_ROW_12_102
*863 TAP_TAPCELL_ROW_12_103
*864 TAP_TAPCELL_ROW_13_104
*865 TAP_TAPCELL_ROW_13_105
*866 TAP_TAPCELL_ROW_13_106
*867 TAP_TAPCELL_ROW_14_107
*868 TAP_TAPCELL_ROW_14_108
*869 TAP_TAPCELL_ROW_14_109
*870 TAP_TAPCELL_ROW_15_110
*871 TAP_TAPCELL_ROW_15_111
*872 TAP_TAPCELL_ROW_15_112
*873 TAP_TAPCELL_ROW_16_113
*874 TAP_TAPCELL_ROW_16_114
*875 TAP_TAPCELL_ROW_16_115
*876 TAP_TAPCELL_ROW_17_116
*877 TAP_TAPCELL_ROW_17_117
*878 TAP_TAPCELL_ROW_17_118
*879 TAP_TAPCELL_ROW_18_119
*880 TAP_TAPCELL_ROW_18_120
*881 TAP_TAPCELL_ROW_18_121
*882 TAP_TAPCELL_ROW_19_122
*883 TAP_TAPCELL_ROW_19_123
*884 TAP_TAPCELL_ROW_19_124
*885 TAP_TAPCELL_ROW_1_68
*886 TAP_TAPCELL_ROW_1_69
*887 TAP_TAPCELL_ROW_1_70
*888 TAP_TAPCELL_ROW_20_125
*889 TAP_TAPCELL_ROW_20_126
*890 TAP_TAPCELL_ROW_20_127
*891 TAP_TAPCELL_ROW_21_128
*892 TAP_TAPCELL_ROW_21_129
*893 TAP_TAPCELL_ROW_21_130
*894 TAP_TAPCELL_ROW_22_131
*895 TAP_TAPCELL_ROW_22_132
*896 TAP_TAPCELL_ROW_22_133
*897 TAP_TAPCELL_ROW_23_134
*898 TAP_TAPCELL_ROW_23_135
*899 TAP_TAPCELL_ROW_23_136
*900 TAP_TAPCELL_ROW_24_137
*901 TAP_TAPCELL_ROW_24_138
*902 TAP_TAPCELL_ROW_24_139
*903 TAP_TAPCELL_ROW_25_140
*904 TAP_TAPCELL_ROW_25_141
*905 TAP_TAPCELL_ROW_25_142
*906 TAP_TAPCELL_ROW_26_143
*907 TAP_TAPCELL_ROW_26_144
*908 TAP_TAPCELL_ROW_26_145
*909 TAP_TAPCELL_ROW_27_146
*910 TAP_TAPCELL_ROW_27_147
*911 TAP_TAPCELL_ROW_27_148
*912 TAP_TAPCELL_ROW_28_149
*913 TAP_TAPCELL_ROW_28_150
*914 TAP_TAPCELL_ROW_28_151
*915 TAP_TAPCELL_ROW_29_152
*916 TAP_TAPCELL_ROW_29_153
*917 TAP_TAPCELL_ROW_29_154
*918 TAP_TAPCELL_ROW_2_71
*919 TAP_TAPCELL_ROW_2_72
*920 TAP_TAPCELL_ROW_2_73
*921 TAP_TAPCELL_ROW_30_155
*922 TAP_TAPCELL_ROW_30_156
*923 TAP_TAPCELL_ROW_30_157
*924 TAP_TAPCELL_ROW_30_158
*925 TAP_TAPCELL_ROW_30_159
*926 TAP_TAPCELL_ROW_30_160
*927 TAP_TAPCELL_ROW_3_74
*928 TAP_TAPCELL_ROW_3_75
*929 TAP_TAPCELL_ROW_3_76
*930 TAP_TAPCELL_ROW_4_77
*931 TAP_TAPCELL_ROW_4_78
*932 TAP_TAPCELL_ROW_4_79
*933 TAP_TAPCELL_ROW_5_80
*934 TAP_TAPCELL_ROW_5_81
*935 TAP_TAPCELL_ROW_5_82
*936 TAP_TAPCELL_ROW_6_83
*937 TAP_TAPCELL_ROW_6_84
*938 TAP_TAPCELL_ROW_6_85
*939 TAP_TAPCELL_ROW_7_86
*940 TAP_TAPCELL_ROW_7_87
*941 TAP_TAPCELL_ROW_7_88
*942 TAP_TAPCELL_ROW_8_89
*943 TAP_TAPCELL_ROW_8_90
*944 TAP_TAPCELL_ROW_8_91
*945 TAP_TAPCELL_ROW_9_92
*946 TAP_TAPCELL_ROW_9_93
*947 TAP_TAPCELL_ROW_9_94
*948 clkbuf_0_clk
*949 clkbuf_3_0__f_clk
*950 clkbuf_3_1__f_clk
*951 clkbuf_3_2__f_clk
*952 clkbuf_3_3__f_clk
*953 clkbuf_3_4__f_clk
*954 clkbuf_3_5__f_clk
*955 clkbuf_3_6__f_clk
*956 clkbuf_3_7__f_clk
*957 clkload0
*958 clkload1
*959 clkload2
*960 clkload3
*961 clkload4
*962 clkload5
*963 clkload6
*964 dsa\[0\]\._3_
*965 dsa\[0\]\._4_
*966 dsa\[0\]\._5_
*967 dsa\[0\]\._6_
*968 dsa\[0\]\._6__36
*969 dsa\[0\]\._7_
*970 dsa\[0\]\._7__37
*971 dsa\[0\]\._8_
*972 dsa\[0\]\._9_
*973 dsa\[10\]\._3_
*974 dsa\[10\]\._4_
*975 dsa\[10\]\._5_
*976 dsa\[10\]\._6_
*977 dsa\[10\]\._7_
*978 dsa\[10\]\._8_
*979 dsa\[10\]\._9_
*980 dsa\[11\]\._3_
*981 dsa\[11\]\._4_
*982 dsa\[11\]\._5_
*983 dsa\[11\]\._6_
*984 dsa\[11\]\._7_
*985 dsa\[11\]\._8_
*986 dsa\[11\]\._9_
*987 dsa\[12\]\._3_
*988 dsa\[12\]\._4_
*989 dsa\[12\]\._5_
*990 dsa\[12\]\._6_
*991 dsa\[12\]\._7_
*992 dsa\[12\]\._8_
*993 dsa\[12\]\._9_
*994 dsa\[13\]\._3_
*995 dsa\[13\]\._4_
*996 dsa\[13\]\._5_
*997 dsa\[13\]\._6_
*998 dsa\[13\]\._7_
*999 dsa\[13\]\._8_
*1000 dsa\[13\]\._9_
*1001 dsa\[14\]\._3_
*1002 dsa\[14\]\._4_
*1003 dsa\[14\]\._5_
*1004 dsa\[14\]\._6_
*1005 dsa\[14\]\._7_
*1006 dsa\[14\]\._8_
*1007 dsa\[14\]\._9_
*1008 dsa\[15\]\._3_
*1009 dsa\[15\]\._4_
*1010 dsa\[15\]\._5_
*1011 dsa\[15\]\._6_
*1012 dsa\[15\]\._7_
*1013 dsa\[15\]\._8_
*1014 dsa\[15\]\._9_
*1015 dsa\[16\]\._3_
*1016 dsa\[16\]\._4_
*1017 dsa\[16\]\._5_
*1018 dsa\[16\]\._6_
*1019 dsa\[16\]\._7_
*1020 dsa\[16\]\._8_
*1021 dsa\[16\]\._9_
*1022 dsa\[17\]\._3_
*1023 dsa\[17\]\._4_
*1024 dsa\[17\]\._5_
*1025 dsa\[17\]\._6_
*1026 dsa\[17\]\._7_
*1027 dsa\[17\]\._8_
*1028 dsa\[17\]\._9_
*1029 dsa\[18\]\._3_
*1030 dsa\[18\]\._4_
*1031 dsa\[18\]\._5_
*1032 dsa\[18\]\._6_
*1033 dsa\[18\]\._7_
*1034 dsa\[18\]\._8_
*1035 dsa\[18\]\._9_
*1036 dsa\[19\]\._3_
*1037 dsa\[19\]\._4_
*1038 dsa\[19\]\._5_
*1039 dsa\[19\]\._6_
*1040 dsa\[19\]\._7_
*1041 dsa\[19\]\._8_
*1042 dsa\[19\]\._9_
*1043 dsa\[1\]\._3_
*1044 dsa\[1\]\._4_
*1045 dsa\[1\]\._5_
*1046 dsa\[1\]\._6_
*1047 dsa\[1\]\._7_
*1048 dsa\[1\]\._8_
*1049 dsa\[1\]\._9_
*1050 dsa\[20\]\._3_
*1051 dsa\[20\]\._4_
*1052 dsa\[20\]\._5_
*1053 dsa\[20\]\._6_
*1054 dsa\[20\]\._7_
*1055 dsa\[20\]\._8_
*1056 dsa\[20\]\._9_
*1057 dsa\[21\]\._3_
*1058 dsa\[21\]\._4_
*1059 dsa\[21\]\._5_
*1060 dsa\[21\]\._6_
*1061 dsa\[21\]\._7_
*1062 dsa\[21\]\._8_
*1063 dsa\[21\]\._9_
*1064 dsa\[22\]\._3_
*1065 dsa\[22\]\._4_
*1066 dsa\[22\]\._5_
*1067 dsa\[22\]\._6_
*1068 dsa\[22\]\._7_
*1069 dsa\[22\]\._8_
*1070 dsa\[22\]\._9_
*1071 dsa\[23\]\._3_
*1072 dsa\[23\]\._4_
*1073 dsa\[23\]\._5_
*1074 dsa\[23\]\._6_
*1075 dsa\[23\]\._7_
*1076 dsa\[23\]\._8_
*1077 dsa\[23\]\._9_
*1078 dsa\[24\]\._3_
*1079 dsa\[24\]\._4_
*1080 dsa\[24\]\._5_
*1081 dsa\[24\]\._6_
*1082 dsa\[24\]\._7_
*1083 dsa\[24\]\._8_
*1084 dsa\[24\]\._9_
*1085 dsa\[25\]\._3_
*1086 dsa\[25\]\._4_
*1087 dsa\[25\]\._5_
*1088 dsa\[25\]\._6_
*1089 dsa\[25\]\._7_
*1090 dsa\[25\]\._8_
*1091 dsa\[25\]\._9_
*1092 dsa\[26\]\._3_
*1093 dsa\[26\]\._4_
*1094 dsa\[26\]\._5_
*1095 dsa\[26\]\._6_
*1096 dsa\[26\]\._7_
*1097 dsa\[26\]\._8_
*1098 dsa\[26\]\._9_
*1099 dsa\[27\]\._3_
*1100 dsa\[27\]\._4_
*1101 dsa\[27\]\._5_
*1102 dsa\[27\]\._6_
*1103 dsa\[27\]\._7_
*1104 dsa\[27\]\._8_
*1105 dsa\[27\]\._9_
*1106 dsa\[28\]\._3_
*1107 dsa\[28\]\._4_
*1108 dsa\[28\]\._5_
*1109 dsa\[28\]\._6_
*1110 dsa\[28\]\._7_
*1111 dsa\[28\]\._8_
*1112 dsa\[28\]\._9_
*1113 dsa\[29\]\._3_
*1114 dsa\[29\]\._4_
*1115 dsa\[29\]\._5_
*1116 dsa\[29\]\._6_
*1117 dsa\[29\]\._7_
*1118 dsa\[29\]\._8_
*1119 dsa\[29\]\._9_
*1120 dsa\[2\]\._3_
*1121 dsa\[2\]\._4_
*1122 dsa\[2\]\._5_
*1123 dsa\[2\]\._6_
*1124 dsa\[2\]\._7_
*1125 dsa\[2\]\._8_
*1126 dsa\[2\]\._9_
*1127 dsa\[30\]\._3_
*1128 dsa\[30\]\._4_
*1129 dsa\[30\]\._5_
*1130 dsa\[30\]\._6_
*1131 dsa\[30\]\._7_
*1132 dsa\[30\]\._8_
*1133 dsa\[30\]\._9_
*1134 dsa\[31\]\._3_
*1135 dsa\[31\]\._4_
*1136 dsa\[31\]\._5_
*1137 dsa\[31\]\._6_
*1138 dsa\[31\]\._7_
*1139 dsa\[31\]\._8_
*1140 dsa\[31\]\._9_
*1141 dsa\[3\]\._3_
*1142 dsa\[3\]\._4_
*1143 dsa\[3\]\._5_
*1144 dsa\[3\]\._6_
*1145 dsa\[3\]\._7_
*1146 dsa\[3\]\._8_
*1147 dsa\[3\]\._9_
*1148 dsa\[4\]\._3_
*1149 dsa\[4\]\._4_
*1150 dsa\[4\]\._5_
*1151 dsa\[4\]\._6_
*1152 dsa\[4\]\._7_
*1153 dsa\[4\]\._8_
*1154 dsa\[4\]\._9_
*1155 dsa\[5\]\._3_
*1156 dsa\[5\]\._4_
*1157 dsa\[5\]\._5_
*1158 dsa\[5\]\._6_
*1159 dsa\[5\]\._7_
*1160 dsa\[5\]\._8_
*1161 dsa\[5\]\._9_
*1162 dsa\[6\]\._3_
*1163 dsa\[6\]\._4_
*1164 dsa\[6\]\._5_
*1165 dsa\[6\]\._6_
*1166 dsa\[6\]\._7_
*1167 dsa\[6\]\._8_
*1168 dsa\[6\]\._9_
*1169 dsa\[7\]\._3_
*1170 dsa\[7\]\._4_
*1171 dsa\[7\]\._5_
*1172 dsa\[7\]\._6_
*1173 dsa\[7\]\._7_
*1174 dsa\[7\]\._8_
*1175 dsa\[7\]\._9_
*1176 dsa\[8\]\._3_
*1177 dsa\[8\]\._4_
*1178 dsa\[8\]\._5_
*1179 dsa\[8\]\._6_
*1180 dsa\[8\]\._7_
*1181 dsa\[8\]\._8_
*1182 dsa\[8\]\._9_
*1183 dsa\[9\]\._3_
*1184 dsa\[9\]\._4_
*1185 dsa\[9\]\._5_
*1186 dsa\[9\]\._6_
*1187 dsa\[9\]\._7_
*1188 dsa\[9\]\._8_
*1189 dsa\[9\]\._9_
*1190 input1
*1191 input10
*1192 input11
*1193 input12
*1194 input13
*1195 input14
*1196 input15
*1197 input16
*1198 input17
*1199 input18
*1200 input19
*1201 input2
*1202 input20
*1203 input21
*1204 input22
*1205 input23
*1206 input24
*1207 input25
*1208 input26
*1209 input27
*1210 input28
*1211 input29
*1212 input3
*1213 input30
*1214 input31
*1215 input32
*1216 input33
*1217 input34
*1218 input4
*1219 input5
*1220 input6
*1221 input7
*1222 input8
*1223 input9
*1224 output35

*PORTS
a[0] I
a[10] I
a[11] I
a[12] I
a[13] I
a[14] I
a[15] I
a[16] I
a[17] I
a[18] I
a[19] I
a[1] I
a[20] I
a[21] I
a[22] I
a[23] I
a[24] I
a[25] I
a[26] I
a[27] I
a[28] I
a[29] I
a[2] I
a[30] I
a[31] I
a[3] I
a[4] I
a[5] I
a[6] I
a[7] I
a[8] I
a[9] I
clk I
rst I
x I
y O

*D_NET *1 0.00120508
*CONN
*P a[0] I
*I *1190:A I *D sky130_fd_sc_hd__buf_1
*CAP
1 a[0] 0.000602541
2 *1190:A 0
3 *1:11 0.000602541
4 *1:11 *1193:A 0
*RES
1 a[0] *1:11 27.8843 
2 *1:11 *1190:A 23 
*END

*D_NET *2 0.00107296
*CONN
*P a[10] I
*I *1201:A I *D sky130_fd_sc_hd__buf_1
*CAP
1 a[10] 0.000536481
2 *1201:A 0.000536481
3 *1201:A *3:9 0
4 *1201:A *32:9 0
*RES
1 a[10] *1201:A 49.7864 
*END

*D_NET *3 0.00115644
*CONN
*P a[11] I
*I *1212:A I *D sky130_fd_sc_hd__buf_1
*CAP
1 a[11] 0.00057822
2 *1212:A 0
3 *3:9 0.00057822
4 *3:9 *4:9 0
5 *1201:A *3:9 0
*RES
1 a[11] *3:9 27.7393 
2 *3:9 *1212:A 23 
*END

*D_NET *4 0.00115644
*CONN
*P a[12] I
*I *1218:A I *D sky130_fd_sc_hd__buf_1
*CAP
1 a[12] 0.00057822
2 *1218:A 0
3 *4:9 0.00057822
4 *4:9 *1219:A 0
5 *3:9 *4:9 0
*RES
1 a[12] *4:9 27.7393 
2 *4:9 *1218:A 23 
*END

*D_NET *5 0.00107296
*CONN
*P a[13] I
*I *1219:A I *D sky130_fd_sc_hd__buf_1
*CAP
1 a[13] 0.000536481
2 *1219:A 0.000536481
3 *1219:A *1220:A 0
4 *4:9 *1219:A 0
*RES
1 a[13] *1219:A 49.7864 
*END

*D_NET *6 0.001112
*CONN
*P a[14] I
*I *1220:A I *D sky130_fd_sc_hd__buf_1
*CAP
1 a[14] 0.00052248
2 *1220:A 0.00052248
3 *1220:A *7:11 0
4 *1220:A *305:10 6.70363e-05
5 *1219:A *1220:A 0
*RES
1 a[14] *1220:A 49.7864 
*END

*D_NET *7 0.00120511
*CONN
*P a[15] I
*I *1221:A I *D sky130_fd_sc_hd__buf_1
*CAP
1 a[15] 0.000602556
2 *1221:A 0
3 *7:11 0.000602556
4 *7:11 *1222:A 0
5 *7:11 *305:10 0
6 *1220:A *7:11 0
*RES
1 a[15] *7:11 27.8843 
2 *7:11 *1221:A 23 
*END

*D_NET *8 0.00108007
*CONN
*P a[16] I
*I *1222:A I *D sky130_fd_sc_hd__buf_1
*CAP
1 a[16] 0.000540034
2 *1222:A 0.000540034
3 *1222:A *9:9 0
4 *7:11 *1222:A 0
*RES
1 a[16] *1222:A 49.7864 
*END

*D_NET *9 0.00115644
*CONN
*P a[17] I
*I *1223:A I *D sky130_fd_sc_hd__clkbuf_1
*CAP
1 a[17] 0.00057822
2 *1223:A 0
3 *9:9 0.00057822
4 *9:9 *10:9 0
5 *1222:A *9:9 0
*RES
1 a[17] *9:9 27.7393 
2 *9:9 *1223:A 23 
*END

*D_NET *10 0.00115644
*CONN
*P a[18] I
*I *1191:A I *D sky130_fd_sc_hd__clkbuf_1
*CAP
1 a[18] 0.00057822
2 *1191:A 0
3 *10:9 0.00057822
4 *10:9 *1192:A 0
5 *9:9 *10:9 0
*RES
1 a[18] *10:9 27.7393 
2 *10:9 *1191:A 23 
*END

*D_NET *11 0.00107296
*CONN
*P a[19] I
*I *1192:A I *D sky130_fd_sc_hd__clkbuf_1
*CAP
1 a[19] 0.000536481
2 *1192:A 0.000536481
3 *1192:A *1194:A 0
4 *10:9 *1192:A 0
*RES
1 a[19] *1192:A 49.7864 
*END

*D_NET *12 0.00108007
*CONN
*P a[1] I
*I *1193:A I *D sky130_fd_sc_hd__buf_1
*CAP
1 a[1] 0.000540034
2 *1193:A 0.000540034
3 *1193:A *23:11 0
4 *1:11 *1193:A 0
*RES
1 a[1] *1193:A 49.7864 
*END

*D_NET *13 0.00107296
*CONN
*P a[20] I
*I *1194:A I *D sky130_fd_sc_hd__clkbuf_1
*CAP
1 a[20] 0.000536481
2 *1194:A 0.000536481
3 *1194:A *14:9 0
4 *1192:A *1194:A 0
*RES
1 a[20] *1194:A 49.7864 
*END

*D_NET *14 0.00115644
*CONN
*P a[21] I
*I *1195:A I *D sky130_fd_sc_hd__buf_1
*CAP
1 a[21] 0.00057822
2 *1195:A 0
3 *14:9 0.00057822
4 *14:9 *15:9 0
5 *1194:A *14:9 0
*RES
1 a[21] *14:9 27.7393 
2 *14:9 *1195:A 23 
*END

*D_NET *15 0.00115644
*CONN
*P a[22] I
*I *1196:A I *D sky130_fd_sc_hd__buf_1
*CAP
1 a[22] 0.00057822
2 *1196:A 0
3 *15:9 0.00057822
4 *15:9 *16:11 0
5 *14:9 *15:9 0
*RES
1 a[22] *15:9 27.7393 
2 *15:9 *1196:A 23 
*END

*D_NET *16 0.00129295
*CONN
*P a[23] I
*I *1197:A I *D sky130_fd_sc_hd__buf_1
*CAP
1 a[23] 0.000641323
2 *1197:A 0
3 *16:11 0.000641323
4 *16:11 *17:11 0
5 *16:11 *278:8 7.53384e-06
6 *16:11 *301:10 2.76611e-06
7 *15:9 *16:11 0
*RES
1 a[23] *16:11 28.8371 
2 *16:11 *1197:A 23 
*END

*D_NET *17 0.00135668
*CONN
*P a[24] I
*I *1198:A I *D sky130_fd_sc_hd__buf_1
*CAP
1 a[24] 0.000660811
2 *1198:A 0
3 *17:11 0.000660811
4 *17:11 *1199:A 0
5 *17:11 *279:8 3.22879e-05
6 *17:11 *301:10 2.76611e-06
7 *16:11 *17:11 0
*RES
1 a[24] *17:11 29.3136 
2 *17:11 *1198:A 23 
*END

*D_NET *18 0.00108007
*CONN
*P a[25] I
*I *1199:A I *D sky130_fd_sc_hd__buf_1
*CAP
1 a[25] 0.000540034
2 *1199:A 0.000540034
3 *1199:A *19:9 0
4 *17:11 *1199:A 0
*RES
1 a[25] *1199:A 49.7864 
*END

*D_NET *19 0.00116652
*CONN
*P a[26] I
*I *1200:A I *D sky130_fd_sc_hd__buf_1
*CAP
1 a[26] 0.00058326
2 *1200:A 0
3 *19:9 0.00058326
4 *19:9 *1202:A 0
5 *1199:A *19:9 0
*RES
1 a[26] *19:9 27.7393 
2 *19:9 *1200:A 23 
*END

*D_NET *20 0.00112957
*CONN
*P a[27] I
*I *1202:A I *D sky130_fd_sc_hd__buf_1
*CAP
1 a[27] 0.000532382
2 *1202:A 0.000532382
3 *1202:A *1203:A 0
4 *1202:A *280:10 6.48049e-05
5 *19:9 *1202:A 0
*RES
1 a[27] *1202:A 49.7864 
*END

*D_NET *21 0.00108304
*CONN
*P a[28] I
*I *1203:A I *D sky130_fd_sc_hd__buf_1
*CAP
1 a[28] 0.000541521
2 *1203:A 0.000541521
3 *1203:A *22:9 0
4 *1203:A *280:10 0
5 *1202:A *1203:A 0
*RES
1 a[28] *1203:A 49.7864 
*END

*D_NET *22 0.00117683
*CONN
*P a[29] I
*I *1204:A I *D sky130_fd_sc_hd__buf_1
*CAP
1 a[29] 0.00057186
2 *1204:A 0
3 *22:9 0.00057186
4 *22:9 *24:9 0
5 *22:9 *284:10 3.31127e-05
6 *1203:A *22:9 0
*RES
1 a[29] *22:9 27.7393 
2 *22:9 *1204:A 23 
*END

*D_NET *23 0.00117594
*CONN
*P a[2] I
*I *1205:A I *D sky130_fd_sc_hd__buf_1
*CAP
1 a[2] 0.000573276
2 *1205:A 0
3 *23:11 0.000573276
4 *23:11 *26:9 0
5 *23:11 *274:8 2.93845e-05
6 *23:11 *274:12 0
7 *1193:A *23:11 0
*RES
1 a[2] *23:11 27.4079 
2 *23:11 *1205:A 23 
*END

*D_NET *24 0.00163685
*CONN
*P a[30] I
*I *1206:A I *D sky130_fd_sc_hd__clkbuf_1
*CAP
1 a[30] 0.000366976
2 *1206:A 0
3 *24:9 0.000366976
4 *24:9 *25:11 0.000880692
5 *24:9 *284:10 2.22079e-05
6 *22:9 *24:9 0
*RES
1 a[30] *24:9 27.2629 
2 *24:9 *1206:A 23 
*END

*D_NET *25 0.00203123
*CONN
*P a[31] I
*I *1207:A I *D sky130_fd_sc_hd__clkbuf_1
*CAP
1 a[31] 0.00055146
2 *1207:A 0
3 *25:11 0.00055146
4 *25:11 *1043:B 2.22079e-05
5 *25:11 *284:10 0
6 *25:11 *287:8 2.5415e-05
7 *24:9 *25:11 0.000880692
*RES
1 a[31] *25:11 30.8257 
2 *25:11 *1207:A 23 
*END

*D_NET *26 0.00118326
*CONN
*P a[3] I
*I *1208:A I *D sky130_fd_sc_hd__buf_1
*CAP
1 a[3] 0.00058591
2 *1208:A 0
3 *26:9 0.00058591
4 *26:9 *27:9 0
5 *26:9 *274:12 0
6 *26:9 *298:20 1.14452e-05
7 *23:11 *26:9 0
*RES
1 a[3] *26:9 27.7393 
2 *26:9 *1208:A 23 
*END

*D_NET *27 0.0011766
*CONN
*P a[4] I
*I *1209:A I *D sky130_fd_sc_hd__buf_1
*CAP
1 a[4] 0.0005883
2 *1209:A 0
3 *27:9 0.0005883
4 *27:9 *28:11 0
5 *26:9 *27:9 0
*RES
1 a[4] *27:9 27.7393 
2 *27:9 *1209:A 23 
*END

*D_NET *28 0.00120936
*CONN
*P a[5] I
*I *1210:A I *D sky130_fd_sc_hd__clkbuf_1
*CAP
1 a[5] 0.000604681
2 *1210:A 0
3 *28:11 0.000604681
4 *28:11 *29:11 0
5 *27:9 *28:11 0
*RES
1 a[5] *28:11 27.8843 
2 *28:11 *1210:A 23 
*END

*D_NET *29 0.00120638
*CONN
*P a[6] I
*I *1211:A I *D sky130_fd_sc_hd__clkbuf_1
*CAP
1 a[6] 0.000603192
2 *1211:A 0
3 *29:11 0.000603192
4 *29:11 *1213:A 0
5 *28:11 *29:11 0
*RES
1 a[6] *29:11 27.8843 
2 *29:11 *1211:A 23 
*END

*D_NET *30 0.0010814
*CONN
*P a[7] I
*I *1213:A I *D sky130_fd_sc_hd__clkbuf_1
*CAP
1 a[7] 0.000540702
2 *1213:A 0.000540702
3 *1213:A *31:9 0
4 *29:11 *1213:A 0
*RES
1 a[7] *1213:A 49.7864 
*END

*D_NET *31 0.00116453
*CONN
*P a[8] I
*I *1214:A I *D sky130_fd_sc_hd__clkbuf_1
*CAP
1 a[8] 0.000582266
2 *1214:A 0
3 *31:9 0.000582266
4 *31:9 *32:9 0
5 *31:9 *295:14 0
6 *1213:A *31:9 0
*RES
1 a[8] *31:9 27.7393 
2 *31:9 *1214:A 23 
*END

*D_NET *32 0.00115644
*CONN
*P a[9] I
*I *1215:A I *D sky130_fd_sc_hd__buf_1
*CAP
1 a[9] 0.00057822
2 *1215:A 0
3 *32:9 0.00057822
4 *1201:A *32:9 0
5 *31:9 *32:9 0
*RES
1 a[9] *32:9 27.7393 
2 *32:9 *1215:A 23 
*END

*D_NET *33 0.00719237
*CONN
*P clk I
*I *948:A I *D sky130_fd_sc_hd__clkbuf_16
*CAP
1 clk 0.000511841
2 *948:A 0
3 *33:15 0.00252027
4 *33:11 0.00303211
5 *33:11 *1147:D 0
6 *33:11 *224:23 6.38947e-05
7 *33:11 *284:20 0
8 *33:15 *1142:B1 0.000433299
9 *33:15 *1146:CLK 0.000185428
10 *33:15 *1146:RESET_B 9.18694e-05
11 *33:15 *1183:B 5.50049e-05
12 *33:15 *224:6 2.47815e-05
13 *33:15 *227:6 0.00025256
14 *33:15 *265:10 2.13054e-05
*RES
1 clk *33:11 29.9795 
2 *33:11 *33:15 34.945 
3 *33:15 *948:A 23 
*END

*D_NET *34 0.000901682
*CONN
*P rst I
*I *1216:A I *D sky130_fd_sc_hd__buf_12
*CAP
1 rst 0.000450841
2 *1216:A 0.000450841
*RES
1 rst *1216:A 47.3214 
*END

*D_NET *37 0.000854158
*CONN
*P x I
*I *1217:A I *D sky130_fd_sc_hd__buf_12
*CAP
1 x 0.000427079
2 *1217:A 0
3 *37:17 0.000427079
4 *37:17 *271:8 0
*RES
1 x *37:17 29.6234 
2 *37:17 *1217:A 23 
*END

*D_NET *38 0.000742974
*CONN
*P y O
*I *1224:X O *D sky130_fd_sc_hd__buf_1
*CAP
1 y 0.000112553
2 *1224:X 0.000256248
3 *38:10 0.0003688
4 *38:10 *40:39 5.37348e-06
*RES
1 *1224:X *38:10 42.0289 
2 *38:10 y 8.4816 
*END

*D_NET *39 0.0216973
*CONN
*I *956:A I *D sky130_fd_sc_hd__clkbuf_16
*I *954:A I *D sky130_fd_sc_hd__clkbuf_16
*I *949:A I *D sky130_fd_sc_hd__clkbuf_16
*I *950:A I *D sky130_fd_sc_hd__clkbuf_16
*I *953:A I *D sky130_fd_sc_hd__clkbuf_16
*I *955:A I *D sky130_fd_sc_hd__clkbuf_16
*I *952:A I *D sky130_fd_sc_hd__clkbuf_16
*I *951:A I *D sky130_fd_sc_hd__clkbuf_16
*I *948:X O *D sky130_fd_sc_hd__clkbuf_16
*CAP
1 *956:A 0.000282193
2 *954:A 0.000308154
3 *949:A 0
4 *950:A 0.000481152
5 *953:A 0.000327112
6 *955:A 0
7 *952:A 0
8 *951:A 0
9 *948:X 0.000105388
10 *39:87 0.000780192
11 *39:70 0.00298349
12 *39:66 0.0020303
13 *39:51 0.00148981
14 *39:47 0.00155396
15 *39:40 0.00117084
16 *39:24 0.000479259
17 *39:14 0.00117768
18 *39:10 0.00223417
19 *39:8 0.000579354
20 *950:A *302:14 0
21 *950:A *303:8 0
22 *950:A *303:14 2.43922e-05
23 *953:A *1160:CLK 2.46468e-05
24 *953:A *1178:A 0
25 *953:A *45:55 0
26 *953:A *45:68 0
27 *953:A *256:37 0
28 *953:A *278:10 0.000303269
29 *953:A *278:22 0
30 *954:A *961:A 9.84851e-05
31 *39:8 *95:12 5.47808e-05
32 *39:10 *46:22 0
33 *39:10 *89:10 0.000165654
34 *39:10 *90:10 0.000114645
35 *39:10 *306:14 0
36 *39:14 *43:6 0.000228149
37 *39:14 *43:12 5.41288e-05
38 *39:24 *1066:A 1.14452e-05
39 *39:24 *282:14 0.000161121
40 *39:24 *296:12 0
41 *39:24 *297:233 0.000357631
42 *39:24 *298:830 0.000219383
43 *39:40 *1003:A 5.50106e-05
44 *39:40 *46:6 0.000172197
45 *39:40 *46:10 0.000185434
46 *39:40 *86:10 6.12551e-05
47 *39:40 *90:10 8.26672e-05
48 *39:40 *306:14 0
49 *39:51 *1184:A1 0
50 *39:51 *46:63 0
51 *39:51 *61:29 9.39262e-05
52 *39:51 *256:37 0
53 *39:51 *260:8 0
54 *39:51 *265:10 0.000163352
55 *39:51 *266:10 0
56 *39:51 *277:10 0
57 *39:51 *278:10 0.00227177
58 *39:51 *298:734 0
59 *39:70 *1178:A 4.21281e-05
60 *39:70 *1178:B 5.50106e-05
61 *39:70 *44:74 0.000272383
62 *39:70 *44:85 9.84794e-05
63 *39:87 *1020:RESET_B 9.48381e-06
64 *39:87 *1056:CLK 4.37033e-05
65 *39:87 *1056:RESET_B 0.000218386
66 *39:87 *297:474 7.1349e-05
67 *39:87 *302:14 0
68 *39:87 *303:8 0
*RES
1 *948:X *39:8 39.5743 
2 *39:8 *39:10 10.7093 
3 *39:10 *39:14 28.0086 
4 *39:14 *39:24 39.6943 
5 *39:24 *951:A 23 
6 *39:14 *952:A 23 
7 *39:10 *39:40 33.6014 
8 *39:40 *955:A 23 
9 *39:40 *39:47 1.57429 
10 *39:47 *39:51 45.0771 
11 *39:51 *953:A 44.5457 
12 *39:51 *39:66 15 
13 *39:66 *39:70 43.7307 
14 *39:70 *950:A 47.3007 
15 *39:70 *39:87 29.6864 
16 *39:87 *949:A 23 
17 *39:66 *954:A 27.9093 
18 *39:47 *956:A 27.4329 
*END

*D_NET *40 0.0148493
*CONN
*I *1112:CLK I *D sky130_fd_sc_hd__dfrtp_1
*I *1062:CLK I *D sky130_fd_sc_hd__dfrtp_1
*I *1118:CLK I *D sky130_fd_sc_hd__dfrtp_1
*I *1056:CLK I *D sky130_fd_sc_hd__dfrtp_1
*I *957:A I *D sky130_fd_sc_hd__clkbuf_4
*I *1041:CLK I *D sky130_fd_sc_hd__dfrtp_1
*I *1042:CLK I *D sky130_fd_sc_hd__dfrtp_1
*I *1132:CLK I *D sky130_fd_sc_hd__dfrtp_1
*I *1139:CLK I *D sky130_fd_sc_hd__dfrtp_1
*I *1140:CLK I *D sky130_fd_sc_hd__dfrtp_1
*I *949:X O *D sky130_fd_sc_hd__clkbuf_16
*CAP
1 *1112:CLK 0.000331969
2 *1062:CLK 0.000189312
3 *1118:CLK 0
4 *1056:CLK 0.000474188
5 *957:A 7.33577e-05
6 *1041:CLK 0
7 *1042:CLK 0
8 *1132:CLK 0.000343328
9 *1139:CLK 0
10 *1140:CLK 0.000420713
11 *949:X 0
12 *40:110 0.000590022
13 *40:103 0.000961885
14 *40:95 0.00125223
15 *40:68 0.000207492
16 *40:39 0.0011262
17 *40:33 0.000890732
18 *40:31 0.000446813
19 *40:16 0.00115261
20 *40:10 0.000751875
21 *40:8 0.000597479
22 *40:6 0.00026681
23 *1062:CLK *1062:RESET_B 0.000188934
24 *1062:CLK *1112:D 0
25 *1062:CLK *297:310 3.70187e-05
26 *1062:CLK *297:312 0.000155776
27 *1062:CLK *297:323 5.55911e-05
28 *1132:CLK *271:8 0.000228167
29 *1140:CLK *1140:D 0.000410704
30 *1140:CLK *1140:RESET_B 6.87592e-05
31 *1140:CLK *297:337 6.48049e-05
32 *1140:CLK *297:341 6.08032e-05
33 *40:8 *297:327 0.000111182
34 *40:10 *297:327 0.000132665
35 *40:16 *1133:D 0
36 *40:16 *135:10 0
37 *40:16 *297:327 0.000308661
38 *40:16 *297:331 0.00040743
39 *40:16 *297:333 0.000113153
40 *40:16 *297:335 6.48142e-05
41 *40:16 *297:337 0.000185104
42 *40:31 *125:8 7.38919e-05
43 *40:33 *125:8 1.83327e-05
44 *40:39 *1138:A1 0.000141954
45 *40:39 *1138:A2 8.99384e-05
46 *40:39 *1138:B1_N 5.50049e-05
47 *40:39 *1224:A 0.000141246
48 *40:39 *221:8 0
49 *40:68 *1140:RESET_B 9.5956e-06
50 *40:68 *222:8 1.92253e-05
51 *40:68 *297:341 3.26418e-05
52 *40:95 *297:323 3.47781e-05
53 *40:95 *297:325 0.000253061
54 *40:95 *297:327 0.000157309
55 *40:103 *1113:A 5.3304e-05
56 *40:103 *1118:D 0.000226765
57 *40:103 *1118:RESET_B 0.000704794
58 *40:110 *297:323 0.000117837
59 *38:10 *40:39 5.37348e-06
60 *39:87 *1056:CLK 4.37033e-05
*RES
1 *949:X *40:6 38 
2 *40:6 *40:8 1.55357 
3 *40:8 *40:10 1.90571 
4 *40:10 *40:16 15.3493 
5 *40:16 *1140:CLK 47.6943 
6 *40:16 *40:31 17.5271 
7 *40:31 *40:33 2.05071 
8 *40:33 *40:39 31.4471 
9 *40:39 *1139:CLK 38 
10 *40:39 *1132:CLK 46.2443 
11 *40:33 *1042:CLK 23 
12 *40:31 *40:68 33.5836 
13 *40:68 *1041:CLK 23 
14 *40:10 *957:A 39.0979 
15 *40:8 *1056:CLK 45.7886 
16 *40:6 *40:95 5.77929 
17 *40:95 *40:103 33.2907 
18 *40:103 *1118:CLK 23 
19 *40:95 *40:110 1.72964 
20 *40:110 *1062:CLK 43.1889 
21 *40:110 *1112:CLK 44.3282 
*END

*D_NET *41 0.00709883
*CONN
*I *1034:CLK I *D sky130_fd_sc_hd__dfrtp_1
*I *1020:CLK I *D sky130_fd_sc_hd__dfrtp_1
*I *1119:CLK I *D sky130_fd_sc_hd__dfrtp_1
*I *1027:CLK I *D sky130_fd_sc_hd__dfrtp_1
*I *958:A I *D sky130_fd_sc_hd__bufinv_16
*I *1133:CLK I *D sky130_fd_sc_hd__dfrtp_1
*I *1055:CLK I *D sky130_fd_sc_hd__dfrtp_1
*I *950:X O *D sky130_fd_sc_hd__clkbuf_16
*CAP
1 *1034:CLK 0
2 *1020:CLK 0.0001645
3 *1119:CLK 0.000170685
4 *1027:CLK 0.0006642
5 *958:A 0
6 *1133:CLK 0
7 *1055:CLK 0.000187318
8 *950:X 0
9 *41:78 0.000560992
10 *41:56 0.000876369
11 *41:40 0.0006642
12 *41:38 0.000665482
13 *41:27 0.000153042
14 *41:14 0.000664149
15 *41:10 0.000627047
16 *41:4 0.000739953
17 *1055:CLK *1055:D 0.000176699
18 *1055:CLK *1055:RESET_B 0.000167877
19 *41:10 *124:10 0
20 *41:10 *298:547 4.54033e-05
21 *41:14 *1055:D 2.93845e-05
22 *41:27 *1133:D 4.76382e-05
23 *41:27 *124:10 0
24 *41:38 *124:10 0
25 *41:38 *136:8 6.7253e-05
26 *41:38 *298:547 0.000105394
27 *41:56 *1053:A 0
28 *41:56 *136:8 9.03054e-05
29 *41:56 *139:10 5.56203e-05
30 *41:56 *293:18 0
31 *41:56 *298:547 6.03737e-05
32 *41:56 *298:572 1.08118e-05
33 *41:78 *1035:RESET_B 0
34 *41:78 *121:8 0.000104133
35 *41:78 *298:326 0
36 *41:78 *302:14 0
*RES
1 *950:X *41:4 23 
2 *41:4 *41:10 17.7757 
3 *41:10 *41:14 20.8621 
4 *41:14 *1055:CLK 27.9093 
5 *41:14 *41:27 32.9621 
6 *41:27 *1133:CLK 23 
7 *41:10 *41:38 3.72857 
8 *41:38 *41:40 15 
9 *41:40 *958:A 23 
10 *41:40 *1027:CLK 34.1029 
11 *41:38 *41:56 26.0614 
12 *41:56 *1119:CLK 26.0036 
13 *41:56 *1020:CLK 26.0036 
14 *41:4 *41:78 39.5907 
15 *41:78 *1034:CLK 23 
*END

*D_NET *42 0.0143094
*CONN
*I *1090:CLK I *D sky130_fd_sc_hd__dfrtp_1
*I *1097:CLK I *D sky130_fd_sc_hd__dfrtp_1
*I *1083:CLK I *D sky130_fd_sc_hd__dfrtp_1
*I *1091:CLK I *D sky130_fd_sc_hd__dfrtp_1
*I *1076:CLK I *D sky130_fd_sc_hd__dfrtp_1
*I *1098:CLK I *D sky130_fd_sc_hd__dfrtp_1
*I *1104:CLK I *D sky130_fd_sc_hd__dfrtp_1
*I *1111:CLK I *D sky130_fd_sc_hd__dfrtp_1
*I *1069:CLK I *D sky130_fd_sc_hd__dfrtp_1
*I *1105:CLK I *D sky130_fd_sc_hd__dfrtp_1
*I *951:X O *D sky130_fd_sc_hd__clkbuf_16
*CAP
1 *1090:CLK 0
2 *1097:CLK 0.00082805
3 *1083:CLK 0.000136225
4 *1091:CLK 8.15962e-05
5 *1076:CLK 0
6 *1098:CLK 0.000117526
7 *1104:CLK 0
8 *1111:CLK 0.000415628
9 *1069:CLK 1.97605e-05
10 *1105:CLK 0.000341319
11 *951:X 5.145e-05
12 *42:120 0.00161745
13 *42:103 0.00148251
14 *42:88 0.000830407
15 *42:54 0.000638625
16 *42:52 0.00102557
17 *42:44 0.00113001
18 *42:34 0.000780454
19 *42:10 0.000600095
20 *42:8 0.000434025
21 *1069:CLK *1069:RESET_B 1.94812e-05
22 *1069:CLK *298:204 5.50106e-05
23 *1083:CLK *1086:A2 5.3304e-05
24 *1083:CLK *169:25 6.21539e-05
25 *1083:CLK *171:22 5.56279e-05
26 *1083:CLK *298:35 0.000138607
27 *1091:CLK *1091:D 5.79559e-05
28 *1097:CLK *1097:RESET_B 8.87126e-05
29 *1098:CLK *271:8 0.000114656
30 *1105:CLK *1105:D 8.16912e-05
31 *1105:CLK *151:10 0
32 *1105:CLK *188:8 0
33 *1111:CLK *271:8 0.000435501
34 *42:10 *188:8 0
35 *42:10 *298:196 0.00021382
36 *42:10 *298:204 0.000171906
37 *42:34 *298:196 0.000275482
38 *42:44 *1076:RESET_B 0.000267205
39 *42:44 *158:6 7.95405e-05
40 *42:54 *271:8 0.000225691
41 *42:88 *298:194 0.00021382
42 *42:88 *298:196 0.000169674
43 *42:103 *166:24 1.83261e-05
44 *42:103 *170:10 0.000141975
45 *42:103 *171:8 1.03972e-05
46 *42:103 *171:22 0.00015795
47 *42:103 *298:194 0.000408147
48 *42:120 *1090:RESET_B 1.12709e-05
49 *42:120 *1097:RESET_B 3.75094e-05
50 *42:120 *171:8 0.00013449
51 *42:120 *297:274 4.06646e-05
52 *42:120 *297:276 3.80755e-05
*RES
1 *951:X *42:8 38.6214 
2 *42:8 *42:10 5.77929 
3 *42:10 *1105:CLK 44.1107 
4 *42:10 *1069:CLK 38.6214 
5 *42:8 *42:34 3.66643 
6 *42:34 *42:44 22.4779 
7 *42:44 *42:52 26.2686 
8 *42:52 *42:54 5.77929 
9 *42:54 *1111:CLK 49.0614 
10 *42:54 *1104:CLK 38 
11 *42:52 *1098:CLK 40.9621 
12 *42:44 *1076:CLK 23 
13 *42:34 *42:88 20.075 
14 *42:88 *1091:CLK 24.5743 
15 *42:88 *42:103 25.3157 
16 *42:103 *1083:CLK 41.0036 
17 *42:103 *42:120 26.4757 
18 *42:120 *1097:CLK 34.5171 
19 *42:120 *1090:CLK 23 
*END

*D_NET *43 0.00906385
*CONN
*I *1063:CLK I *D sky130_fd_sc_hd__dfrtp_1
*I *1013:CLK I *D sky130_fd_sc_hd__dfrtp_1
*I *999:CLK I *D sky130_fd_sc_hd__dfrtp_1
*I *1000:CLK I *D sky130_fd_sc_hd__dfrtp_1
*I *1084:CLK I *D sky130_fd_sc_hd__dfrtp_1
*I *1077:CLK I *D sky130_fd_sc_hd__dfrtp_1
*I *1006:CLK I *D sky130_fd_sc_hd__dfrtp_1
*I *959:A I *D sky130_fd_sc_hd__clkbuf_8
*I *1070:CLK I *D sky130_fd_sc_hd__dfrtp_1
*I *952:X O *D sky130_fd_sc_hd__clkbuf_16
*CAP
1 *1063:CLK 0.000531789
2 *1013:CLK 0.000397168
3 *999:CLK 0.000302666
4 *1000:CLK 0.000133479
5 *1084:CLK 0
6 *1077:CLK 4.24511e-05
7 *1006:CLK 0
8 *959:A 0.000272956
9 *1070:CLK 0.000227846
10 *952:X 0.000349264
11 *43:79 0.00117024
12 *43:54 0.00025232
13 *43:50 0.00064772
14 *43:39 0.000386159
15 *43:25 0.000272956
16 *43:23 0.000237497
17 *43:12 0.000528517
18 *43:6 0.00077121
19 *959:A *160:10 0.000171888
20 *999:CLK *81:10 4.83778e-05
21 *999:CLK *302:10 0.000314872
22 *999:CLK *303:8 0
23 *1000:CLK *1084:RESET_B 0.000141154
24 *1013:CLK *95:12 5.70419e-05
25 *1013:CLK *146:10 0.00022378
26 *1013:CLK *297:175 1.22803e-05
27 *1013:CLK *297:181 2.45964e-05
28 *1013:CLK *302:10 0
29 *1063:CLK *1063:D 0.000126708
30 *1070:CLK *1070:RESET_B 6.88885e-05
31 *43:12 *297:171 0
32 *43:12 *302:10 8.41012e-05
33 *43:23 *297:171 0
34 *43:23 *302:10 0.000108569
35 *43:39 *297:171 0
36 *43:39 *302:10 0.000110024
37 *43:39 *303:8 0
38 *43:50 *302:10 0.000222091
39 *43:50 *303:8 0
40 *43:54 *1084:RESET_B 0.000195118
41 *43:54 *167:6 0.000131629
42 *43:79 *297:173 0.0001606
43 *43:79 *297:175 5.56203e-05
44 *43:79 *302:10 0
45 *39:14 *43:6 0.000228149
46 *39:14 *43:12 5.41288e-05
*RES
1 *952:X *43:6 27.9093 
2 *43:6 *43:12 18.3557 
3 *43:12 *1070:CLK 41.9564 
4 *43:12 *43:23 2.96214 
5 *43:23 *43:25 15 
6 *43:25 *959:A 28.3857 
7 *43:25 *1006:CLK 23 
8 *43:23 *43:39 2.96214 
9 *43:39 *1077:CLK 38.6214 
10 *43:39 *43:50 5.77929 
11 *43:50 *43:54 18.9564 
12 *43:54 *1084:CLK 23 
13 *43:54 *1000:CLK 26.0036 
14 *43:50 *999:CLK 46.2443 
15 *43:6 *43:79 20.7793 
16 *43:79 *1013:CLK 47.3007 
17 *43:79 *1063:CLK 45.1879 
*END

*D_NET *44 0.00443482
*CONN
*I *1182:CLK I *D sky130_fd_sc_hd__dfrtp_1
*I *1014:CLK I *D sky130_fd_sc_hd__dfrtp_1
*I *960:A I *D sky130_fd_sc_hd__clkbuf_8
*I *1181:CLK I *D sky130_fd_sc_hd__dfrtp_1
*I *1021:CLK I *D sky130_fd_sc_hd__dfrtp_1
*I *1175:CLK I *D sky130_fd_sc_hd__dfrtp_1
*I *1028:CLK I *D sky130_fd_sc_hd__dfrtp_1
*I *1035:CLK I *D sky130_fd_sc_hd__dfrtp_1
*I *1174:CLK I *D sky130_fd_sc_hd__dfrtp_1
*I *953:X O *D sky130_fd_sc_hd__clkbuf_16
*CAP
1 *1182:CLK 0.000191652
2 *1014:CLK 0
3 *960:A 0
4 *1181:CLK 0
5 *1021:CLK 4.24511e-05
6 *1175:CLK 0
7 *1028:CLK 3.43162e-05
8 *1035:CLK 4.24511e-05
9 *1174:CLK 0.000120587
10 *953:X 0.000192324
11 *44:85 0.000385121
12 *44:74 0.000468197
13 *44:56 4.24511e-05
14 *44:54 0.000408064
15 *44:18 0.000444911
16 *44:16 0.000481315
17 *44:10 0.000321777
18 *44:8 0.00048231
19 *1028:CLK *298:384 1.94693e-05
20 *1174:CLK *255:10 4.83778e-05
21 *1182:CLK *97:10 6.88552e-05
22 *1182:CLK *256:37 0
23 *1182:CLK *260:8 0
24 *1182:CLK *264:8 0
25 *44:10 *107:10 0
26 *44:10 *111:8 6.46393e-05
27 *44:10 *262:10 0
28 *44:16 *111:8 5.15745e-05
29 *44:16 *257:10 6.79841e-05
30 *44:16 *262:10 0
31 *44:16 *297:400 0
32 *44:18 *118:10 0
33 *44:18 *257:10 8.51329e-05
34 *44:54 *262:10 0
35 *44:74 *104:10 0
36 *44:85 *1014:RESET_B 0
37 *44:85 *256:37 0
38 *39:70 *44:74 0.000272383
39 *39:70 *44:85 9.84794e-05
*RES
1 *953:X *44:8 41.0036 
2 *44:8 *44:10 3.66643 
3 *44:10 *44:16 3.72857 
4 *44:16 *44:18 5.77929 
5 *44:18 *1174:CLK 40.61 
6 *44:18 *1035:CLK 38.6214 
7 *44:16 *1028:CLK 38.6214 
8 *44:10 *1175:CLK 38 
9 *44:8 *44:54 2.25786 
10 *44:54 *44:56 15 
11 *44:56 *1021:CLK 23.6214 
12 *44:56 *1181:CLK 23 
13 *44:54 *44:74 21.3179 
14 *44:74 *960:A 23 
15 *44:74 *44:85 18.7079 
16 *44:85 *1014:CLK 38 
17 *44:85 *1182:CLK 42.06 
*END

*D_NET *45 0.0121791
*CONN
*I *1147:CLK I *D sky130_fd_sc_hd__dfrtp_1
*I *1154:CLK I *D sky130_fd_sc_hd__dfrtp_1
*I *1153:CLK I *D sky130_fd_sc_hd__dfrtp_1
*I *961:A I *D sky130_fd_sc_hd__clkinv_2
*I *1160:CLK I *D sky130_fd_sc_hd__dfrtp_1
*I *1161:CLK I *D sky130_fd_sc_hd__dfrtp_1
*I *1167:CLK I *D sky130_fd_sc_hd__dfrtp_1
*I *1168:CLK I *D sky130_fd_sc_hd__dfrtp_1
*I *954:X O *D sky130_fd_sc_hd__clkbuf_16
*CAP
1 *1147:CLK 0.000126199
2 *1154:CLK 0.000151602
3 *1153:CLK 0.000240395
4 *961:A 4.2583e-05
5 *1160:CLK 0.000124668
6 *1161:CLK 9.18512e-05
7 *1167:CLK 0.000674855
8 *1168:CLK 0.000161574
9 *954:X 0
10 *45:92 0.000904894
11 *45:68 0.000566626
12 *45:55 0.000902914
13 *45:18 0.00101938
14 *45:16 0.000658066
15 *45:10 0.00128081
16 *45:4 0.00103003
17 *1153:CLK *263:8 1.14452e-05
18 *1153:CLK *278:10 0.00012827
19 *1153:CLK *279:10 0
20 *1154:CLK *236:10 5.61311e-05
21 *1160:CLK *241:6 3.22879e-05
22 *1161:CLK *1161:RESET_B 8.39179e-05
23 *1161:CLK *1163:A1 0.0002246
24 *1161:CLK *1164:B 5.3304e-05
25 *1161:CLK *244:27 5.50106e-05
26 *1167:CLK *1167:D 0.000128391
27 *1167:CLK *1170:A2 1.14154e-05
28 *1167:CLK *242:26 9.17998e-05
29 *1167:CLK *279:16 3.98818e-05
30 *1168:CLK *1162:A 0.000138708
31 *1168:CLK *1162:B 0.000221084
32 *1168:CLK *1168:RESET_B 2.4754e-05
33 *1168:CLK *244:12 6.17437e-06
34 *1168:CLK *244:27 4.34973e-05
35 *1168:CLK *249:8 7.44354e-05
36 *1168:CLK *297:10 0.000136486
37 *45:10 *1155:A 0.000154147
38 *45:10 *238:20 0.000138727
39 *45:10 *281:10 0
40 *45:10 *298:429 2.74987e-05
41 *45:16 *1155:A 0.000139657
42 *45:16 *1156:B1 0.000169665
43 *45:16 *238:20 6.16439e-05
44 *45:16 *279:10 0
45 *45:16 *297:44 0.000626648
46 *45:18 *1162:A 0.000129513
47 *45:18 *1163:B1 0.000136486
48 *45:18 *297:10 8.72173e-05
49 *45:18 *297:20 0.000126343
50 *45:18 *297:44 7.70737e-05
51 *45:55 *1160:RESET_B 8.79516e-05
52 *45:55 *241:6 0.00019556
53 *45:68 *278:10 9.35752e-05
54 *45:68 *278:22 0
55 *45:68 *279:10 0
56 *45:92 *1151:B 0.000193749
57 *45:92 *236:10 7.24365e-05
58 *953:A *1160:CLK 2.46468e-05
59 *953:A *45:55 0
60 *953:A *45:68 0
61 *954:A *961:A 9.84851e-05
*RES
1 *954:X *45:4 23 
2 *45:4 *45:10 22.3743 
3 *45:10 *45:16 10.5436 
4 *45:16 *45:18 4.01857 
5 *45:18 *1168:CLK 42.9093 
6 *45:18 *1167:CLK 47.57 
7 *45:16 *1161:CLK 41.0036 
8 *45:10 *45:55 22.3121 
9 *45:55 *1160:CLK 25.5479 
10 *45:55 *45:68 20.4271 
11 *45:68 *961:A 39.0979 
12 *45:68 *1153:CLK 43.4271 
13 *45:4 *45:92 26.3514 
14 *45:92 *1154:CLK 41.3143 
15 *45:92 *1147:CLK 40.2579 
*END

*D_NET *46 0.00952463
*CONN
*I *962:A I *D sky130_fd_sc_hd__clkinv_2
*I *992:CLK I *D sky130_fd_sc_hd__dfrtp_1
*I *985:CLK I *D sky130_fd_sc_hd__dfrtp_1
*I *979:CLK I *D sky130_fd_sc_hd__dfrtp_1
*I *1125:CLK I *D sky130_fd_sc_hd__dfrtp_1
*I *1007:CLK I *D sky130_fd_sc_hd__dfrtp_1
*I *1188:CLK I *D sky130_fd_sc_hd__dfrtp_1
*I *978:CLK I *D sky130_fd_sc_hd__dfrtp_1
*I *955:X O *D sky130_fd_sc_hd__clkbuf_16
*CAP
1 *962:A 0
2 *992:CLK 0
3 *985:CLK 0.00013566
4 *979:CLK 0
5 *1125:CLK 0
6 *1007:CLK 0
7 *1188:CLK 0.000299672
8 *978:CLK 0.000122437
9 *955:X 7.11906e-05
10 *46:98 0.000774154
11 *46:79 0.0011178
12 *46:63 0.000425477
13 *46:55 0.000946539
14 *46:22 0.000668113
15 *46:18 0.000474111
16 *46:12 0.000897728
17 *46:10 0.000428493
18 *46:6 0.000143139
19 *978:CLK *978:D 3.22511e-05
20 *978:CLK *978:RESET_B 9.91895e-05
21 *985:CLK *1005:A1 5.50049e-05
22 *985:CLK *82:12 5.3304e-05
23 *985:CLK *297:165 0.000310641
24 *1188:CLK *1011:A 6.07611e-06
25 *1188:CLK *1188:RESET_B 0.000157918
26 *1188:CLK *89:10 0.000222193
27 *1188:CLK *92:16 2.93747e-05
28 *1188:CLK *298:645 0
29 *46:12 *90:10 0
30 *46:12 *298:667 0
31 *46:18 *90:10 0
32 *46:18 *298:667 0
33 *46:22 *89:10 0.000170806
34 *46:22 *90:10 4.21594e-06
35 *46:22 *298:645 0
36 *46:22 *298:667 0
37 *46:55 *984:A1 0.000398147
38 *46:55 *297:144 0.000483643
39 *46:63 *61:29 4.21594e-06
40 *46:63 *277:10 0.000191138
41 *46:79 *1003:A 0
42 *46:79 *82:8 2.80852e-05
43 *46:79 *86:10 0.000141879
44 *46:79 *90:10 0
45 *46:79 *298:667 0
46 *46:98 *991:A1 0
47 *46:98 *992:D 6.17437e-06
48 *46:98 *68:10 0
49 *46:98 *82:8 0.00026822
50 *46:98 *84:8 0
51 *46:98 *307:10 0
52 *39:10 *46:22 0
53 *39:40 *46:6 0.000172197
54 *39:40 *46:10 0.000185434
55 *39:51 *46:63 0
*RES
1 *955:X *46:6 25.0507 
2 *46:6 *46:10 17.0507 
3 *46:10 *46:12 2.61 
4 *46:12 *46:18 19.06 
5 *46:18 *46:22 20.7793 
6 *46:22 *978:CLK 40.6721 
7 *46:22 *1188:CLK 45.83 
8 *46:18 *1007:CLK 23 
9 *46:12 *46:55 27.5529 
10 *46:55 *46:63 37.5193 
11 *46:63 *1125:CLK 23 
12 *46:55 *979:CLK 23 
13 *46:10 *46:79 4.43286 
14 *46:79 *985:CLK 41.9771 
15 *46:79 *46:98 30.2457 
16 *46:98 *992:CLK 23 
17 *46:6 *962:A 23 
*END

*D_NET *47 0.0117135
*CONN
*I *1126:CLK I *D sky130_fd_sc_hd__dfrtp_1
*I *1189:CLK I *D sky130_fd_sc_hd__dfrtp_1
*I *1146:CLK I *D sky130_fd_sc_hd__dfrtp_1
*I *1049:CLK I *D sky130_fd_sc_hd__dfrtp_1
*I *986:CLK I *D sky130_fd_sc_hd__dfrtp_1
*I *972:CLK I *D sky130_fd_sc_hd__dfrtp_1
*I *971:CLK I *D sky130_fd_sc_hd__dfrtp_1
*I *1048:CLK I *D sky130_fd_sc_hd__dfrtp_1
*I *993:CLK I *D sky130_fd_sc_hd__dfrtp_1
*I *963:A I *D sky130_fd_sc_hd__clkbuf_4
*I *956:X O *D sky130_fd_sc_hd__clkbuf_16
*CAP
1 *1126:CLK 7.49792e-05
2 *1189:CLK 0
3 *1146:CLK 0.0002337
4 *1049:CLK 7.14226e-05
5 *986:CLK 0
6 *972:CLK 3.65708e-05
7 *971:CLK 0.000202725
8 *1048:CLK 0.000680401
9 *993:CLK 0
10 *963:A 0
11 *956:X 0.000310359
12 *47:120 0.000275033
13 *47:99 0.000893617
14 *47:83 0.00030457
15 *47:40 0.000977633
16 *47:31 0.000501542
17 *47:25 0.000557179
18 *47:21 0.000438145
19 *47:12 0.000383491
20 *47:6 0.00106229
21 *971:CLK *971:D 7.4416e-05
22 *971:CLK *52:8 7.03766e-05
23 *971:CLK *278:10 0.000210668
24 *971:CLK *298:113 1.37232e-05
25 *971:CLK *298:122 0.000273772
26 *971:CLK *301:10 0
27 *1048:CLK *969:A2 8.2832e-05
28 *1048:CLK *969:B1_N 1.98161e-05
29 *1048:CLK *992:RESET_B 1.59094e-05
30 *1048:CLK *48:14 0.000452486
31 *1048:CLK *297:667 5.14746e-06
32 *1049:CLK *297:645 6.9805e-05
33 *1126:CLK *1126:RESET_B 4.75206e-05
34 *1146:CLK *1146:RESET_B 9.08434e-05
35 *1146:CLK *227:6 3.22879e-05
36 *1146:CLK *279:10 0
37 *1146:CLK *297:113 7.80035e-05
38 *47:12 *279:10 0.000199701
39 *47:12 *297:637 0
40 *47:21 *279:10 0.000201503
41 *47:21 *297:637 0
42 *47:25 *279:10 0.000194251
43 *47:31 *278:10 0.000440396
44 *47:31 *279:10 0
45 *47:31 *297:697 0.000197479
46 *47:31 *300:10 0
47 *47:40 *992:RESET_B 0.000129513
48 *47:40 *278:10 0.000237543
49 *47:40 *279:10 0
50 *47:40 *297:697 3.70094e-05
51 *47:40 *301:10 0
52 *47:83 *986:RESET_B 5.03619e-05
53 *47:83 *69:10 0.000205892
54 *47:83 *297:645 0.000153155
55 *47:99 *279:10 0
56 *47:99 *297:113 0.000385735
57 *47:99 *297:122 0.000294055
58 *47:99 *297:637 0.000122304
59 *47:120 *1126:RESET_B 6.69899e-05
60 *47:120 *1189:RESET_B 2.33744e-05
61 *47:120 *297:99 4.75206e-05
62 *33:15 *1146:CLK 0.000185428
*RES
1 *956:X *47:6 26.9564 
2 *47:6 *47:12 20.1371 
3 *47:12 *963:A 38 
4 *47:12 *47:21 2.78607 
5 *47:21 *47:25 17.7861 
6 *47:25 *47:31 24.7357 
7 *47:31 *993:CLK 38 
8 *47:31 *47:40 3.31429 
9 *47:40 *1048:CLK 49.6414 
10 *47:40 *971:CLK 44.4629 
11 *47:25 *972:CLK 23.6214 
12 *47:21 *47:83 21.8046 
13 *47:83 *986:CLK 23 
14 *47:83 *1049:CLK 24.5743 
15 *47:6 *47:99 27.1179 
16 *47:99 *1146:CLK 43.9243 
17 *47:99 *47:120 18.9564 
18 *47:120 *1189:CLK 23 
19 *47:120 *1126:CLK 24.5743 
*END

*D_NET *48 0.00122436
*CONN
*I *966:A I *D sky130_fd_sc_hd__nand2_1
*I *969:B1_N I *D sky130_fd_sc_hd__a21bo_1
*I *964:Y O *D sky130_fd_sc_hd__nand3_1
*CAP
1 *966:A 0
2 *969:B1_N 8.99401e-06
3 *964:Y 8.70232e-05
4 *48:14 0.000152449
5 *48:8 0.000230478
6 *969:B1_N *969:A2 5.67058e-05
7 *48:8 *49:8 0
8 *48:8 *281:10 5.21127e-05
9 *48:14 *969:A2 3.03981e-05
10 *48:14 *49:12 5.41288e-05
11 *48:14 *297:667 7.97636e-05
12 *1048:CLK *969:B1_N 1.98161e-05
13 *1048:CLK *48:14 0.000452486
*RES
1 *964:Y *48:8 39.5536 
2 *48:8 *48:14 20.7586 
3 *48:14 *969:B1_N 23.6214 
4 *48:14 *966:A 23 
*END

*D_NET *49 0.00113509
*CONN
*I *966:B I *D sky130_fd_sc_hd__nand2_1
*I *969:A2 I *D sky130_fd_sc_hd__a21bo_1
*I *965:X O *D sky130_fd_sc_hd__a21o_1
*CAP
1 *966:B 0
2 *969:A2 0.000235125
3 *965:X 0.000120278
4 *49:12 0.000257186
5 *49:8 0.000142339
6 *969:A2 *297:667 5.50106e-05
7 *49:8 *971:RESET_B 5.15745e-05
8 *49:8 *281:10 0
9 *49:12 *297:667 4.95081e-05
10 *969:B1_N *969:A2 5.67058e-05
11 *1048:CLK *969:A2 8.2832e-05
12 *48:8 *49:8 0
13 *48:14 *969:A2 3.03981e-05
14 *48:14 *49:12 5.41288e-05
*RES
1 *965:X *49:8 40.2579 
2 *49:8 *49:12 16.0979 
3 *49:12 *969:A2 27.9507 
4 *49:12 *966:B 23 
*END

*D_NET *50 0.000811926
*CONN
*I *967:B I *D sky130_fd_sc_hd__xnor2_1
*I *966:Y O *D sky130_fd_sc_hd__nand2_1
*CAP
1 *967:B 9.58217e-05
2 *966:Y 0.000193534
3 *50:8 0.000289355
4 *967:B *54:10 5.37348e-06
5 *50:8 *279:10 0.000113749
6 *50:8 *297:673 0.000114092
*RES
1 *966:Y *50:8 42.7229 
2 *50:8 *967:B 39.5743 
*END

*D_NET *51 0.000587453
*CONN
*I *964:A I *D sky130_fd_sc_hd__nand3_1
*I *965:B1 I *D sky130_fd_sc_hd__a21o_1
*I *971:Q O *D sky130_fd_sc_hd__dfrtp_1
*CAP
1 *964:A 7.79529e-05
2 *965:B1 2.0995e-05
3 *971:Q 6.7035e-05
4 *51:6 0.000165983
5 *964:A *965:A1 2.4754e-05
6 *964:A *965:A2 0.000104183
7 *964:A *288:10 3.91386e-05
8 *964:A *298:122 1.76557e-05
9 *965:B1 *965:A2 1.14154e-05
10 *51:6 *298:122 5.83407e-05
*RES
1 *971:Q *51:6 24.5743 
2 *51:6 *965:B1 23.4971 
3 *51:6 *964:A 25.5479 
*END

*D_NET *52 0.000623331
*CONN
*I *971:D I *D sky130_fd_sc_hd__dfrtp_1
*I *969:X O *D sky130_fd_sc_hd__a21bo_1
*CAP
1 *971:D 0.000135099
2 *969:X 6.62916e-05
3 *52:8 0.000201391
4 *971:D *298:122 2.98648e-05
5 *52:8 *301:10 4.58924e-05
6 *971:CLK *971:D 7.4416e-05
7 *971:CLK *52:8 7.03766e-05
*RES
1 *969:X *52:8 39.9057 
2 *52:8 *971:D 40.5271 
*END

*D_NET *53 0.00133602
*CONN
*I *1046:A I *D sky130_fd_sc_hd__xnor2_1
*I *1047:A1 I *D sky130_fd_sc_hd__a21bo_1
*I *972:Q O *D sky130_fd_sc_hd__dfrtp_1
*CAP
1 *1046:A 0
2 *1047:A1 0
3 *972:Q 0.000212271
4 *53:16 0.000223748
5 *53:8 0.00043602
6 *53:16 *1045:B 0.000117121
7 *53:16 *128:8 0.000141888
8 *53:16 *283:10 0
9 *53:16 *285:14 0.000204971
*RES
1 *972:Q *53:8 26.5007 
2 *53:8 *53:16 36.0486 
3 *53:16 *1047:A1 23 
4 *53:8 *1046:A 23 
*END

*D_NET *54 0.000365339
*CONN
*I *972:D I *D sky130_fd_sc_hd__dfrtp_1
*I *967:Y O *D sky130_fd_sc_hd__xnor2_1
*CAP
1 *972:D 0
2 *967:Y 0.000179983
3 *54:10 0.000179983
4 *54:10 *279:10 0
5 *54:10 *281:10 0
6 *967:B *54:10 5.37348e-06
*RES
1 *967:Y *54:10 40.6514 
2 *54:10 *972:D 38 
*END

*D_NET *55 0.000957198
*CONN
*I *977:B1_N I *D sky130_fd_sc_hd__a21bo_1
*I *975:A I *D sky130_fd_sc_hd__nand2_1
*I *973:Y O *D sky130_fd_sc_hd__nand3_1
*CAP
1 *977:B1_N 0
2 *975:A 0.000112645
3 *973:Y 5.60739e-05
4 *55:12 0.000264124
5 *55:8 0.000207552
6 *975:A *977:A1 4.95081e-05
7 *975:A *977:A2 5.50049e-05
8 *55:8 *56:8 0
9 *55:8 *58:16 8.85189e-05
10 *55:12 *977:A2 0.00012377
*RES
1 *973:Y *55:8 39.2014 
2 *55:8 *55:12 17.5271 
3 *55:12 *975:A 25.5686 
4 *55:12 *977:B1_N 23 
*END

*D_NET *56 0.000796789
*CONN
*I *975:B I *D sky130_fd_sc_hd__nand2_1
*I *977:A2 I *D sky130_fd_sc_hd__a21bo_1
*I *974:X O *D sky130_fd_sc_hd__a21o_1
*CAP
1 *975:B 0
2 *977:A2 5.25076e-05
3 *974:X 0.000112287
4 *56:10 5.25076e-05
5 *56:8 0.000112287
6 *977:A2 *977:A1 0.000230604
7 *56:8 *976:A 1.44813e-05
8 *56:8 *57:8 4.334e-05
9 *56:8 *58:16 0
10 *975:A *977:A2 5.50049e-05
11 *55:8 *56:8 0
12 *55:12 *977:A2 0.00012377
*RES
1 *974:X *56:8 39.9057 
2 *56:8 *56:10 15 
3 *56:10 *977:A2 26.0036 
4 *56:10 *975:B 23 
*END

*D_NET *57 0.000350914
*CONN
*I *976:B I *D sky130_fd_sc_hd__xnor2_1
*I *975:Y O *D sky130_fd_sc_hd__nand2_1
*CAP
1 *976:B 0
2 *975:Y 7.66604e-05
3 *57:8 7.66604e-05
4 *57:8 *976:A 0.00014411
5 *57:8 *58:16 0
6 *57:8 *276:16 1.01436e-05
7 *57:8 *277:10 0
8 *56:8 *57:8 4.334e-05
*RES
1 *975:Y *57:8 40.2579 
2 *57:8 *976:B 38 
*END

*D_NET *58 0.00125383
*CONN
*I *974:B1 I *D sky130_fd_sc_hd__a21o_1
*I *973:A I *D sky130_fd_sc_hd__nand3_1
*I *978:Q O *D sky130_fd_sc_hd__dfrtp_1
*CAP
1 *974:B1 0.00015741
2 *973:A 0
3 *978:Q 0.000281415
4 *58:16 0.000438825
5 *974:B1 *276:16 5.67058e-05
6 *58:16 *976:A 0
7 *58:16 *59:8 8.43191e-05
8 *58:16 *60:10 0
9 *58:16 *298:645 0.000125802
10 *58:16 *298:667 2.08324e-05
11 *55:8 *58:16 8.85189e-05
12 *56:8 *58:16 0
13 *57:8 *58:16 0
*RES
1 *978:Q *58:16 44.7321 
2 *58:16 *973:A 38 
3 *58:16 *974:B1 40.1957 
*END

*D_NET *59 0.00131495
*CONN
*I *978:D I *D sky130_fd_sc_hd__dfrtp_1
*I *977:X O *D sky130_fd_sc_hd__a21bo_1
*CAP
1 *978:D 0.000495114
2 *977:X 3.92722e-05
3 *59:8 0.000534386
4 *978:D *978:RESET_B 4.33253e-05
5 *59:8 *298:645 8.62876e-05
6 *978:CLK *978:D 3.22511e-05
7 *58:16 *59:8 8.43191e-05
*RES
1 *977:X *59:8 39.2014 
2 *59:8 *978:D 44.4059 
*END

*D_NET *60 0.00234725
*CONN
*I *976:A I *D sky130_fd_sc_hd__xnor2_1
*I *977:A1 I *D sky130_fd_sc_hd__a21bo_1
*I *1189:Q O *D sky130_fd_sc_hd__dfrtp_1
*CAP
1 *976:A 0.000135968
2 *977:A1 0.000155012
3 *1189:Q 0.000663292
4 *60:10 0.000954272
5 *976:A *277:10 0
6 *60:10 *277:10 0
7 *975:A *977:A1 4.95081e-05
8 *977:A2 *977:A1 0.000230604
9 *56:8 *976:A 1.44813e-05
10 *57:8 *976:A 0.00014411
11 *58:16 *976:A 0
12 *58:16 *60:10 0
*RES
1 *1189:Q *60:10 46.7207 
2 *60:10 *977:A1 41.9564 
3 *60:10 *976:A 40.9621 
*END

*D_NET *61 0.0035322
*CONN
*I *983:A I *D sky130_fd_sc_hd__xnor2_1
*I *984:A1 I *D sky130_fd_sc_hd__a21bo_1
*I *979:Q O *D sky130_fd_sc_hd__dfrtp_1
*CAP
1 *983:A 0
2 *984:A1 0.000243715
3 *979:Q 0.000339061
4 *61:29 0.000385183
5 *61:6 0.000967959
6 *984:A1 *979:D 0.00016056
7 *984:A1 *297:144 6.45243e-05
8 *61:6 *979:RESET_B 2.8521e-05
9 *61:6 *297:126 4.95081e-05
10 *61:6 *297:144 0.000245491
11 *61:29 *984:B1_N 0.000189184
12 *61:29 *63:10 3.56869e-05
13 *61:29 *65:8 0.000141879
14 *61:29 *68:6 3.16665e-05
15 *61:29 *278:10 0.000152973
16 *39:51 *61:29 9.39262e-05
17 *46:55 *984:A1 0.000398147
18 *46:63 *61:29 4.21594e-06
*RES
1 *979:Q *61:6 30.7679 
2 *61:6 *984:A1 30.1464 
3 *61:6 *61:29 39.6943 
4 *61:29 *983:A 23 
*END

*D_NET *62 0.000704562
*CONN
*I *979:D I *D sky130_fd_sc_hd__dfrtp_1
*I *976:Y O *D sky130_fd_sc_hd__xnor2_1
*CAP
1 *979:D 0.000172952
2 *976:Y 5.59093e-05
3 *62:8 0.000228862
4 *62:8 *276:16 0
5 *62:8 *277:10 8.62783e-05
6 *984:A1 *979:D 0.00016056
*RES
1 *976:Y *62:8 39.2014 
2 *62:8 *979:D 40.4287 
*END

*D_NET *63 0.00199053
*CONN
*I *982:A I *D sky130_fd_sc_hd__nand2_1
*I *984:B1_N I *D sky130_fd_sc_hd__a21bo_1
*I *980:Y O *D sky130_fd_sc_hd__nand3_1
*CAP
1 *982:A 0
2 *984:B1_N 0.00034291
3 *980:Y 0.000219102
4 *63:10 0.000562012
5 *984:B1_N *277:10 0.000189184
6 *984:B1_N *297:144 0.000271476
7 *63:10 *980:C 2.30292e-05
8 *63:10 *65:8 8.62783e-05
9 *63:10 *68:6 1.08906e-05
10 *63:10 *277:10 6.07826e-05
11 *61:29 *984:B1_N 0.000189184
12 *61:29 *63:10 3.56869e-05
*RES
1 *980:Y *63:10 41.9564 
2 *63:10 *984:B1_N 46.0786 
3 *63:10 *982:A 38 
*END

*D_NET *64 0.0023172
*CONN
*I *982:B I *D sky130_fd_sc_hd__nand2_1
*I *984:A2 I *D sky130_fd_sc_hd__a21bo_1
*I *981:X O *D sky130_fd_sc_hd__a21o_1
*CAP
1 *982:B 0.000361474
2 *984:A2 0.000222308
3 *981:X 0.000203488
4 *64:10 0.000787269
5 *982:B *66:10 8.82055e-05
6 *984:A2 *276:16 0.000212712
7 *984:A2 *297:144 0.000192691
8 *984:A2 *298:667 0
9 *64:10 *980:B 0.000139357
10 *64:10 *276:16 8.26569e-05
11 *64:10 *297:144 2.70366e-05
12 *64:10 *298:667 0
*RES
1 *981:X *64:10 41.8321 
2 *64:10 *984:A2 44.4007 
3 *64:10 *982:B 44.3593 
*END

*D_NET *65 0.00038531
*CONN
*I *983:B I *D sky130_fd_sc_hd__xnor2_1
*I *982:Y O *D sky130_fd_sc_hd__nand2_1
*CAP
1 *983:B 0
2 *982:Y 6.37309e-05
3 *65:8 6.37309e-05
4 *65:8 *277:10 2.96909e-05
5 *65:8 *278:10 0
6 *61:29 *65:8 0.000141879
7 *63:10 *65:8 8.62783e-05
*RES
1 *982:Y *65:8 40.2579 
2 *65:8 *983:B 38 
*END

*D_NET *66 0.00106384
*CONN
*I *980:A I *D sky130_fd_sc_hd__nand3_1
*I *981:B1 I *D sky130_fd_sc_hd__a21o_1
*I *985:Q O *D sky130_fd_sc_hd__dfrtp_1
*CAP
1 *980:A 0
2 *981:B1 3.79925e-05
3 *985:Q 0.000278799
4 *66:12 3.79925e-05
5 *66:10 0.000278799
6 *981:B1 *980:B 0.000139352
7 *981:B1 *980:C 0.000139352
8 *66:10 *276:16 6.33511e-05
9 *66:10 *277:10 0
10 *982:B *66:10 8.82055e-05
*RES
1 *985:Q *66:10 42.4329 
2 *66:10 *66:12 15 
3 *66:12 *981:B1 24.5743 
4 *66:12 *980:A 23 
*END

*D_NET *67 0.000980177
*CONN
*I *985:D I *D sky130_fd_sc_hd__dfrtp_1
*I *984:X O *D sky130_fd_sc_hd__a21bo_1
*CAP
1 *985:D 8.85872e-05
2 *984:X 0.000186663
3 *67:8 0.00027525
4 *985:D *297:165 7.48987e-05
5 *67:8 *297:144 0.000354778
6 *67:8 *298:667 0
*RES
1 *984:X *67:8 42.7229 
2 *67:8 *985:D 40.0507 
*END

*D_NET *68 0.00391588
*CONN
*I *991:A1 I *D sky130_fd_sc_hd__a21bo_1
*I *990:A I *D sky130_fd_sc_hd__xnor2_1
*I *986:Q O *D sky130_fd_sc_hd__dfrtp_1
*CAP
1 *991:A1 0.00026305
2 *990:A 0
3 *986:Q 0.0008451
4 *68:10 0.000631215
5 *68:6 0.00121327
6 *991:A1 *991:A2 2.93845e-05
7 *991:A1 *70:8 0
8 *991:A1 *71:19 0.000127498
9 *991:A1 *74:8 7.03869e-05
10 *68:6 *980:C 0.000221406
11 *68:6 *69:10 0.000184527
12 *68:6 *298:701 0.000105934
13 *68:10 *71:19 3.74442e-05
14 *68:10 *72:10 0.00014411
15 *68:10 *82:8 0
16 *68:10 *275:16 0
17 *46:98 *991:A1 0
18 *46:98 *68:10 0
19 *61:29 *68:6 3.16665e-05
20 *63:10 *68:6 1.08906e-05
*RES
1 *986:Q *68:6 35.5321 
2 *68:6 *68:10 22.8921 
3 *68:10 *990:A 38 
4 *68:10 *991:A1 44.1936 
*END

*D_NET *69 0.00160169
*CONN
*I *986:D I *D sky130_fd_sc_hd__dfrtp_1
*I *983:Y O *D sky130_fd_sc_hd__xnor2_1
*CAP
1 *986:D 0
2 *983:Y 0.000605637
3 *69:10 0.000605637
4 *47:83 *69:10 0.000205892
5 *68:6 *69:10 0.000184527
*RES
1 *983:Y *69:10 33.3779 
2 *69:10 *986:D 23 
*END

*D_NET *70 0.00185649
*CONN
*I *991:B1_N I *D sky130_fd_sc_hd__a21bo_1
*I *989:A I *D sky130_fd_sc_hd__nand2_1
*I *987:Y O *D sky130_fd_sc_hd__nand3_1
*CAP
1 *991:B1_N 0
2 *989:A 0
3 *987:Y 0.00020922
4 *70:14 0.000345222
5 *70:8 0.000554442
6 *70:8 *71:6 2.93845e-05
7 *70:8 *298:102 0.0001975
8 *70:8 *298:113 4.34745e-05
9 *70:14 *71:19 0.00032871
10 *70:14 *73:10 4.48671e-05
11 *70:14 *275:12 0
12 *70:14 *275:16 0.000103672
13 *991:A1 *70:8 0
*RES
1 *987:Y *70:8 26.9771 
2 *70:8 *70:14 38.5964 
3 *70:14 *989:A 23 
4 *70:8 *991:B1_N 23 
*END

*D_NET *71 0.00167881
*CONN
*I *989:B I *D sky130_fd_sc_hd__nand2_1
*I *991:A2 I *D sky130_fd_sc_hd__a21bo_1
*I *988:X O *D sky130_fd_sc_hd__a21o_1
*CAP
1 *989:B 0
2 *991:A2 5.20446e-05
3 *988:X 4.86435e-05
4 *71:19 0.000285359
5 *71:6 0.000386047
6 *991:A2 *298:102 0.000141954
7 *71:6 *298:102 0.00014196
8 *71:19 *72:10 7.03766e-05
9 *71:19 *73:10 0
10 *991:A1 *991:A2 2.93845e-05
11 *991:A1 *71:19 0.000127498
12 *68:10 *71:19 3.74442e-05
13 *70:8 *71:6 2.93845e-05
14 *70:14 *71:19 0.00032871
*RES
1 *988:X *71:6 24.5743 
2 *71:6 *991:A2 24.5743 
3 *71:6 *71:19 38.9486 
4 *71:19 *989:B 23 
*END

*D_NET *72 0.000613151
*CONN
*I *990:B I *D sky130_fd_sc_hd__xnor2_1
*I *989:Y O *D sky130_fd_sc_hd__nand2_1
*CAP
1 *990:B 0
2 *989:Y 0.000160663
3 *72:10 0.000160663
4 *72:10 *297:697 7.73389e-05
5 *68:10 *72:10 0.00014411
6 *71:19 *72:10 7.03766e-05
*RES
1 *989:Y *72:10 41.48 
2 *72:10 *990:B 38 
*END

*D_NET *73 0.00102949
*CONN
*I *987:A I *D sky130_fd_sc_hd__nand3_1
*I *988:B1 I *D sky130_fd_sc_hd__a21o_1
*I *992:Q O *D sky130_fd_sc_hd__dfrtp_1
*CAP
1 *987:A 8.31136e-05
2 *988:B1 0
3 *992:Q 0.000138919
4 *73:12 8.31136e-05
5 *73:10 0.000138919
6 *987:A *987:B 9.74629e-05
7 *987:A *988:A2 1.5418e-05
8 *987:A *273:12 9.58714e-05
9 *987:A *298:102 0.000109097
10 *987:A *298:113 4.20085e-05
11 *73:10 *992:RESET_B 1.73399e-05
12 *73:10 *275:12 0.000163361
13 *70:14 *73:10 4.48671e-05
14 *71:19 *73:10 0
*RES
1 *992:Q *73:10 40.8793 
2 *73:10 *73:12 15 
3 *73:12 *988:B1 23 
4 *73:12 *987:A 26.045 
*END

*D_NET *74 0.000637599
*CONN
*I *992:D I *D sky130_fd_sc_hd__dfrtp_1
*I *991:X O *D sky130_fd_sc_hd__a21bo_1
*CAP
1 *992:D 0.000194219
2 *991:X 8.62996e-05
3 *74:8 0.000280519
4 *991:A1 *74:8 7.03869e-05
5 *46:98 *992:D 6.17437e-06
*RES
1 *991:X *74:8 39.9057 
2 *74:8 *992:D 41.48 
*END

*D_NET *75 0.00259998
*CONN
*I *998:A1 I *D sky130_fd_sc_hd__a21bo_1
*I *997:A I *D sky130_fd_sc_hd__xnor2_1
*I *993:Q O *D sky130_fd_sc_hd__dfrtp_1
*CAP
1 *998:A1 0
2 *997:A 6.13571e-05
3 *993:Q 0.00098373
4 *75:23 5.45546e-05
5 *75:8 0.00109964
6 *997:A *997:B 7.53384e-06
7 *75:8 *997:B 0.0001164
8 *75:8 *76:10 1.94693e-05
9 *75:23 *304:10 0.000169683
10 *75:23 *305:10 8.76088e-05
*RES
1 *993:Q *75:8 38.8879 
2 *75:8 *997:A 24.1186 
3 *75:8 *75:23 32.2579 
4 *75:23 *998:A1 23 
*END

*D_NET *76 0.00110976
*CONN
*I *993:D I *D sky130_fd_sc_hd__dfrtp_1
*I *990:Y O *D sky130_fd_sc_hd__xnor2_1
*CAP
1 *993:D 0
2 *990:Y 0.000482489
3 *76:10 0.000482489
4 *76:10 *993:RESET_B 0.000125313
5 *75:8 *76:10 1.94693e-05
*RES
1 *990:Y *76:10 31.8864 
2 *76:10 *993:D 23 
*END

*D_NET *77 0.00112918
*CONN
*I *996:A I *D sky130_fd_sc_hd__nand2_1
*I *998:B1_N I *D sky130_fd_sc_hd__a21bo_1
*I *994:Y O *D sky130_fd_sc_hd__nand3_1
*CAP
1 *996:A 0
2 *998:B1_N 2.95294e-05
3 *994:Y 0.000299075
4 *77:12 2.95294e-05
5 *77:10 0.000299075
6 *998:B1_N *998:A2 5.50049e-05
7 *77:10 *78:8 8.16356e-05
8 *77:10 *80:6 0.000141052
9 *77:10 *80:25 4.34745e-05
10 *77:10 *272:22 9.84851e-05
11 *77:10 *298:72 3.12704e-05
12 *77:10 *298:87 1.32939e-05
13 *77:10 *304:10 0
14 *77:10 *306:14 7.75329e-06
*RES
1 *994:Y *77:10 44.5664 
2 *77:10 *77:12 15 
3 *77:12 *998:B1_N 23.6214 
4 *77:12 *996:A 23 
*END

*D_NET *78 0.000993791
*CONN
*I *998:A2 I *D sky130_fd_sc_hd__a21bo_1
*I *996:B I *D sky130_fd_sc_hd__nand2_1
*I *995:X O *D sky130_fd_sc_hd__a21o_1
*CAP
1 *998:A2 0.000262554
2 *996:B 0
3 *995:X 8.16444e-05
4 *78:10 0.000262554
5 *78:8 8.16444e-05
6 *78:8 *306:14 0.000168754
7 *998:B1_N *998:A2 5.50049e-05
8 *77:10 *78:8 8.16356e-05
*RES
1 *995:X *78:8 40.2579 
2 *78:8 *78:10 15 
3 *78:10 *996:B 23 
4 *78:10 *998:A2 27.4536 
*END

*D_NET *79 0.000653952
*CONN
*I *997:B I *D sky130_fd_sc_hd__xnor2_1
*I *996:Y O *D sky130_fd_sc_hd__nand2_1
*CAP
1 *997:B 9.83743e-05
2 *996:Y 0.000113255
3 *79:8 0.000211629
4 *997:B *83:10 5.41288e-05
5 *79:8 *304:10 0
6 *79:8 *306:14 5.26308e-05
7 *997:A *997:B 7.53384e-06
8 *75:8 *997:B 0.0001164
*RES
1 *996:Y *79:8 40.2579 
2 *79:8 *997:B 40.5271 
*END

*D_NET *80 0.00108791
*CONN
*I *994:A I *D sky130_fd_sc_hd__nand3_1
*I *995:B1 I *D sky130_fd_sc_hd__a21o_1
*I *999:Q O *D sky130_fd_sc_hd__dfrtp_1
*CAP
1 *994:A 0
2 *995:B1 2.31061e-05
3 *999:Q 3.98498e-05
4 *80:25 0.000245228
5 *80:6 0.000308184
6 *995:B1 *995:A2 8.57697e-07
7 *995:B1 *272:22 0
8 *80:6 *298:72 5.2894e-05
9 *80:25 *272:22 8.56466e-05
10 *80:25 *298:72 1.94693e-05
11 *80:25 *306:14 5.10276e-05
12 *80:25 *307:10 7.71222e-05
13 *77:10 *80:6 0.000141052
14 *77:10 *80:25 4.34745e-05
*RES
1 *999:Q *80:6 24.5743 
2 *80:6 *995:B1 23.4971 
3 *80:6 *80:25 34.5986 
4 *80:25 *994:A 23 
*END

*D_NET *81 0.000777762
*CONN
*I *999:D I *D sky130_fd_sc_hd__dfrtp_1
*I *998:X O *D sky130_fd_sc_hd__a21bo_1
*CAP
1 *999:D 0
2 *998:X 0.000341746
3 *81:10 0.000341746
4 *81:10 *303:8 4.58924e-05
5 *999:CLK *81:10 4.83778e-05
*RES
1 *998:X *81:10 43.3857 
2 *81:10 *999:D 38 
*END

*D_NET *82 0.00179997
*CONN
*I *1004:A I *D sky130_fd_sc_hd__xnor2_1
*I *1005:A1 I *D sky130_fd_sc_hd__a21bo_1
*I *1000:Q O *D sky130_fd_sc_hd__dfrtp_1
*CAP
1 *1004:A 0
2 *1005:A1 0.000159682
3 *1000:Q 0.000336506
4 *82:12 0.000185877
5 *82:8 0.000362701
6 *1005:A1 *90:10 3.71369e-05
7 *1005:A1 *297:165 0.00031345
8 *82:8 *298:667 0
9 *985:CLK *1005:A1 5.50049e-05
10 *985:CLK *82:12 5.3304e-05
11 *46:79 *82:8 2.80852e-05
12 *46:98 *82:8 0.00026822
13 *68:10 *82:8 0
*RES
1 *1000:Q *82:8 45.54 
2 *82:8 *82:12 15.6214 
3 *82:12 *1005:A1 27.4329 
4 *82:12 *1004:A 23 
*END

*D_NET *83 0.000428977
*CONN
*I *1000:D I *D sky130_fd_sc_hd__dfrtp_1
*I *997:Y O *D sky130_fd_sc_hd__xnor2_1
*CAP
1 *1000:D 0
2 *997:Y 0.000164473
3 *83:10 0.000164473
4 *83:10 *304:10 4.59027e-05
5 *83:10 *306:14 0
6 *997:B *83:10 5.41288e-05
*RES
1 *997:Y *83:10 41.0036 
2 *83:10 *1000:D 38 
*END

*D_NET *84 0.00101525
*CONN
*I *1005:B1_N I *D sky130_fd_sc_hd__a21bo_1
*I *1003:A I *D sky130_fd_sc_hd__nand2_1
*I *1001:Y O *D sky130_fd_sc_hd__nand3_1
*CAP
1 *1005:B1_N 4.24857e-05
2 *1003:A 0.000228937
3 *1001:Y 7.42978e-05
4 *84:8 0.00034572
5 *1003:A *1003:B 0
6 *1003:A *85:10 0
7 *1003:A *86:10 3.71251e-05
8 *1003:A *90:10 0.000166522
9 *1005:B1_N *297:165 5.50106e-05
10 *84:8 *1002:A1 1.01436e-05
11 *84:8 *85:10 0
12 *39:40 *1003:A 5.50106e-05
13 *46:79 *1003:A 0
14 *46:98 *84:8 0
*RES
1 *1001:Y *84:8 39.2014 
2 *84:8 *1003:A 43.1164 
3 *84:8 *1005:B1_N 38.6214 
*END

*D_NET *85 0.000850689
*CONN
*I *1005:A2 I *D sky130_fd_sc_hd__a21bo_1
*I *1003:B I *D sky130_fd_sc_hd__nand2_1
*I *1002:X O *D sky130_fd_sc_hd__a21o_1
*CAP
1 *1005:A2 0
2 *1003:B 0.00012616
3 *1002:X 0.000177602
4 *85:10 0.000303762
5 *1003:B *306:14 0.00012838
6 *85:10 *1002:A1 2.76611e-06
7 *85:10 *87:12 5.12254e-05
8 *85:10 *306:14 6.07929e-05
9 *1003:A *1003:B 0
10 *1003:A *85:10 0
11 *84:8 *85:10 0
*RES
1 *1002:X *85:10 41.0036 
2 *85:10 *1003:B 41.3143 
3 *85:10 *1005:A2 38 
*END

*D_NET *86 0.00096593
*CONN
*I *1004:B I *D sky130_fd_sc_hd__xnor2_1
*I *1003:Y O *D sky130_fd_sc_hd__nand2_1
*CAP
1 *1004:B 0
2 *1003:Y 0.000362836
3 *86:10 0.000362836
4 *1003:A *86:10 3.71251e-05
5 *39:40 *86:10 6.12551e-05
6 *46:79 *86:10 0.000141879
*RES
1 *1003:Y *86:10 43.8621 
2 *86:10 *1004:B 38 
*END

*D_NET *87 0.0012703
*CONN
*I *1001:A I *D sky130_fd_sc_hd__nand3_1
*I *1002:B1 I *D sky130_fd_sc_hd__a21o_1
*I *1006:Q O *D sky130_fd_sc_hd__dfrtp_1
*CAP
1 *1001:A 0
2 *1002:B1 0
3 *1006:Q 8.12942e-05
4 *87:29 0.000236486
5 *87:12 0.000333226
6 *87:8 0.000178034
7 *87:8 *304:10 0
8 *87:8 *306:14 0.000141879
9 *87:29 *1001:B 1.02791e-05
10 *87:29 *298:692 0.00017623
11 *87:29 *306:14 0
12 *87:29 *307:10 6.16439e-05
13 *85:10 *87:12 5.12254e-05
*RES
1 *1006:Q *87:8 39.9057 
2 *87:8 *87:12 16.5743 
3 *87:12 *1002:B1 23 
4 *87:12 *87:29 34.7125 
5 *87:29 *1001:A 23 
*END

*D_NET *88 0.00109709
*CONN
*I *1006:D I *D sky130_fd_sc_hd__dfrtp_1
*I *1005:X O *D sky130_fd_sc_hd__a21bo_1
*CAP
1 *1006:D 0
2 *1005:X 0.000388732
3 *88:6 0.000388732
4 *88:6 *1006:RESET_B 2.09871e-05
5 *88:6 *297:165 0.000224204
6 *88:6 *297:171 7.44354e-05
*RES
1 *1005:X *88:6 31.2443 
2 *88:6 *1006:D 23 
*END

*D_NET *89 0.003791
*CONN
*I *1012:A1 I *D sky130_fd_sc_hd__a21bo_1
*I *1011:A I *D sky130_fd_sc_hd__xnor2_1
*I *1007:Q O *D sky130_fd_sc_hd__dfrtp_1
*CAP
1 *1012:A1 0
2 *1011:A 0.00043743
3 *1007:Q 0.00064075
4 *89:10 0.000781364
5 *89:8 0.000984685
6 *1011:A *1008:A 0
7 *1011:A *1011:B 0.000141954
8 *1011:A *1188:RESET_B 0
9 *1011:A *92:16 5.26204e-05
10 *1011:A *93:8 0
11 *1011:A *94:10 0
12 *1011:A *97:10 7.53384e-06
13 *89:8 *1007:RESET_B 0.00013404
14 *89:10 *94:10 0
15 *89:10 *95:8 4.58924e-05
16 *89:10 *306:14 0
17 *1188:CLK *1011:A 6.07611e-06
18 *1188:CLK *89:10 0.000222193
19 *39:10 *89:10 0.000165654
20 *46:22 *89:10 0.000170806
*RES
1 *1007:Q *89:8 46.2443 
2 *89:8 *89:10 10.3571 
3 *89:10 *1011:A 46.1821 
4 *89:10 *1012:A1 38 
*END

*D_NET *90 0.00119523
*CONN
*I *1007:D I *D sky130_fd_sc_hd__dfrtp_1
*I *1004:Y O *D sky130_fd_sc_hd__xnor2_1
*CAP
1 *1007:D 0
2 *1004:Y 0.000395019
3 *90:10 0.000395019
4 *90:10 *306:14 0
5 *1003:A *90:10 0.000166522
6 *1005:A1 *90:10 3.71369e-05
7 *39:10 *90:10 0.000114645
8 *39:40 *90:10 8.26672e-05
9 *46:12 *90:10 0
10 *46:18 *90:10 0
11 *46:22 *90:10 4.21594e-06
12 *46:79 *90:10 0
*RES
1 *1004:Y *90:10 46.6379 
2 *90:10 *1007:D 38 
*END

*D_NET *91 0.000691359
*CONN
*I *1012:B1_N I *D sky130_fd_sc_hd__a21bo_1
*I *1010:A I *D sky130_fd_sc_hd__nand2_1
*I *1008:Y O *D sky130_fd_sc_hd__nand3_1
*CAP
1 *1012:B1_N 5.67007e-05
2 *1010:A 5.48182e-05
3 *1008:Y 0.000106163
4 *91:8 0.000217682
5 *1010:A *92:16 6.48049e-05
6 *1010:A *298:641 5.67058e-05
7 *1010:A *298:645 0
8 *1012:B1_N *92:16 7.6144e-05
9 *1012:B1_N *298:645 0
10 *91:8 *298:632 2.30292e-05
11 *91:8 *298:641 3.53115e-05
*RES
1 *1008:Y *91:8 39.5743 
2 *91:8 *1010:A 39.4707 
3 *91:8 *1012:B1_N 39.2014 
*END

*D_NET *92 0.000864716
*CONN
*I *1012:A2 I *D sky130_fd_sc_hd__a21bo_1
*I *1010:B I *D sky130_fd_sc_hd__nand2_1
*I *1009:X O *D sky130_fd_sc_hd__a21o_1
*CAP
1 *1012:A2 0
2 *1010:B 0
3 *1009:X 8.06218e-05
4 *92:16 0.000237948
5 *92:6 0.00031857
6 *92:16 *1188:RESET_B 4.6318e-06
7 *92:16 *298:645 0
8 *1010:A *92:16 6.48049e-05
9 *1011:A *92:16 5.26204e-05
10 *1012:B1_N *92:16 7.6144e-05
11 *1188:CLK *92:16 2.93747e-05
*RES
1 *1009:X *92:6 24.5743 
2 *92:6 *92:16 34.8057 
3 *92:16 *1010:B 23 
4 *92:6 *1012:A2 23 
*END

*D_NET *93 0.000717219
*CONN
*I *1011:B I *D sky130_fd_sc_hd__xnor2_1
*I *1010:Y O *D sky130_fd_sc_hd__nand2_1
*CAP
1 *1011:B 0.000141547
2 *1010:Y 0.000110774
3 *93:8 0.000252321
4 *1011:B *97:10 7.06229e-05
5 *1011:A *1011:B 0.000141954
6 *1011:A *93:8 0
*RES
1 *1010:Y *93:8 39.9057 
2 *93:8 *1011:B 41.48 
*END

*D_NET *94 0.00167225
*CONN
*I *1009:B1 I *D sky130_fd_sc_hd__a21o_1
*I *1008:A I *D sky130_fd_sc_hd__nand3_1
*I *1013:Q O *D sky130_fd_sc_hd__dfrtp_1
*CAP
1 *1009:B1 0
2 *1008:A 0.000149849
3 *1013:Q 0.000284342
4 *94:10 0.00043419
5 *1008:A *1008:B 0.000314052
6 *1008:A *298:625 0
7 *1008:A *298:632 0.000230604
8 *1008:A *306:14 6.07611e-06
9 *94:10 *95:8 2.54046e-05
10 *94:10 *95:12 0.000148688
11 *94:10 *306:14 7.90464e-05
12 *1011:A *1008:A 0
13 *1011:A *94:10 0
14 *89:10 *94:10 0
*RES
1 *1013:Q *94:10 43.2614 
2 *94:10 *1008:A 43.1371 
3 *94:10 *1009:B1 38 
*END

*D_NET *95 0.00178556
*CONN
*I *1013:D I *D sky130_fd_sc_hd__dfrtp_1
*I *1012:X O *D sky130_fd_sc_hd__a21bo_1
*CAP
1 *1013:D 0
2 *1012:X 8.46411e-05
3 *95:12 0.000590416
4 *95:8 0.000675057
5 *95:8 *306:14 0
6 *95:12 *146:10 0.000103637
7 *1013:CLK *95:12 5.70419e-05
8 *39:8 *95:12 5.47808e-05
9 *89:10 *95:8 4.58924e-05
10 *94:10 *95:8 2.54046e-05
11 *94:10 *95:12 0.000148688
*RES
1 *1012:X *95:8 39.9057 
2 *95:8 *95:12 27.0557 
3 *95:12 *1013:D 23 
*END

*D_NET *96 0.0011367
*CONN
*I *1018:A I *D sky130_fd_sc_hd__xnor2_1
*I *1019:A1 I *D sky130_fd_sc_hd__a21bo_1
*I *1014:Q O *D sky130_fd_sc_hd__dfrtp_1
*CAP
1 *1018:A 0
2 *1019:A1 0.000197488
3 *1014:Q 0.000320751
4 *96:12 0.000197488
5 *96:10 0.000320751
6 *1019:A1 *98:14 5.70419e-05
7 *1019:A1 *101:25 3.7122e-06
8 *96:10 *100:10 3.70094e-05
9 *96:10 *297:474 2.45549e-06
10 *96:10 *304:10 0
*RES
1 *1014:Q *96:10 42.785 
2 *96:10 *96:12 15 
3 *96:12 *1019:A1 26.48 
4 *96:12 *1018:A 23 
*END

*D_NET *97 0.00150933
*CONN
*I *1014:D I *D sky130_fd_sc_hd__dfrtp_1
*I *1011:Y O *D sky130_fd_sc_hd__xnor2_1
*CAP
1 *1014:D 0
2 *1011:Y 0.00068116
3 *97:10 0.00068116
4 *97:10 *104:10 0
5 *1011:A *97:10 7.53384e-06
6 *1011:B *97:10 7.06229e-05
7 *1182:CLK *97:10 6.88552e-05
*RES
1 *1011:Y *97:10 49.0614 
2 *97:10 *1014:D 38 
*END

*D_NET *98 0.000896919
*CONN
*I *1017:A I *D sky130_fd_sc_hd__nand2_1
*I *1019:B1_N I *D sky130_fd_sc_hd__a21bo_1
*I *1015:Y O *D sky130_fd_sc_hd__nand3_1
*CAP
1 *1017:A 7.06713e-05
2 *1019:B1_N 0
3 *1015:Y 0.000123738
4 *98:14 0.000140197
5 *98:6 0.000334607
6 *1017:A *100:10 7.53384e-06
7 *98:6 *1015:C 5.50106e-05
8 *98:6 *1017:B 2.18409e-05
9 *98:14 *304:10 8.62783e-05
10 *1019:A1 *98:14 5.70419e-05
*RES
1 *1015:Y *98:6 24.5743 
2 *98:6 *98:14 32.2993 
3 *98:14 *1019:B1_N 23 
4 *98:6 *1017:A 24.4707 
*END

*D_NET *99 0.00132453
*CONN
*I *1017:B I *D sky130_fd_sc_hd__nand2_1
*I *1019:A2 I *D sky130_fd_sc_hd__a21bo_1
*I *1016:X O *D sky130_fd_sc_hd__a21o_1
*CAP
1 *1017:B 0.000135572
2 *1019:A2 0
3 *1016:X 0.000176185
4 *99:10 0.000311756
5 *1017:B *1015:C 5.50106e-05
6 *1017:B *1016:A1 0.0002129
7 *1017:B *304:10 0.00010762
8 *1017:B *305:10 1.14452e-05
9 *99:10 *1016:A1 0.000140949
10 *99:10 *101:25 8.4047e-05
11 *99:10 *297:474 3.87132e-05
12 *99:10 *304:10 2.84912e-05
13 *98:6 *1017:B 2.18409e-05
*RES
1 *1016:X *99:10 41.48 
2 *99:10 *1019:A2 38 
3 *99:10 *1017:B 42.06 
*END

*D_NET *100 0.000554536
*CONN
*I *1018:B I *D sky130_fd_sc_hd__xnor2_1
*I *1017:Y O *D sky130_fd_sc_hd__nand2_1
*CAP
1 *1018:B 0
2 *1017:Y 0.000254996
3 *100:10 0.000254996
4 *100:10 *304:10 0
5 *1017:A *100:10 7.53384e-06
6 *96:10 *100:10 3.70094e-05
*RES
1 *1017:Y *100:10 41.8321 
2 *100:10 *1018:B 38 
*END

*D_NET *101 0.0015896
*CONN
*I *1016:B1 I *D sky130_fd_sc_hd__a21o_1
*I *1015:A I *D sky130_fd_sc_hd__nand3_1
*I *1020:Q O *D sky130_fd_sc_hd__dfrtp_1
*CAP
1 *1016:B1 0
2 *1015:A 0
3 *1020:Q 5.43738e-05
4 *101:25 0.000207647
5 *101:12 8.75628e-05
6 *101:6 0.000349584
7 *101:6 *102:6 2.64616e-05
8 *101:12 *1016:A1 0.000274562
9 *101:12 *298:600 0.000247687
10 *101:12 *298:615 3.70187e-05
11 *101:25 *1016:A1 4.42688e-05
12 *101:25 *102:6 6.17437e-06
13 *101:25 *304:10 0.000166504
14 *1019:A1 *101:25 3.7122e-06
15 *99:10 *101:25 8.4047e-05
*RES
1 *1020:Q *101:6 23.6214 
2 *101:6 *101:12 33.6664 
3 *101:12 *1015:A 23 
4 *101:6 *101:25 33.8321 
5 *101:25 *1016:B1 23 
*END

*D_NET *102 0.0010905
*CONN
*I *1020:D I *D sky130_fd_sc_hd__dfrtp_1
*I *1019:X O *D sky130_fd_sc_hd__a21bo_1
*CAP
1 *1020:D 0
2 *1019:X 0.000528932
3 *102:6 0.000528932
4 *101:6 *102:6 2.64616e-05
5 *101:25 *102:6 6.17437e-06
*RES
1 *1019:X *102:6 31.2443 
2 *102:6 *1020:D 23 
*END

*D_NET *103 0.00199761
*CONN
*I *1025:A I *D sky130_fd_sc_hd__xnor2_1
*I *1026:A1 I *D sky130_fd_sc_hd__a21bo_1
*I *1021:Q O *D sky130_fd_sc_hd__dfrtp_1
*CAP
1 *1025:A 0.000425462
2 *1026:A1 0.000109554
3 *1021:Q 0.000179169
4 *103:10 0.000714184
5 *1025:A *108:8 2.93845e-05
6 *1025:A *297:450 0.000190131
7 *1026:A1 *105:10 0
8 *1026:A1 *109:10 0
9 *1026:A1 *303:8 0
10 *1026:A1 *303:14 0
11 *1026:A1 *304:24 0.000141879
12 *103:10 *1022:A 2.79662e-05
13 *103:10 *1022:B 1.24376e-05
14 *103:10 *303:8 0
15 *103:10 *304:24 0.000167443
*RES
1 *1021:Q *103:10 41.3557 
2 *103:10 *1026:A1 40.61 
3 *103:10 *1025:A 45.9336 
*END

*D_NET *104 0.00132881
*CONN
*I *1021:D I *D sky130_fd_sc_hd__dfrtp_1
*I *1018:Y O *D sky130_fd_sc_hd__xnor2_1
*CAP
1 *1021:D 0
2 *1018:Y 0.000664404
3 *104:10 0.000664404
4 *44:74 *104:10 0
5 *97:10 *104:10 0
*RES
1 *1018:Y *104:10 49.8486 
2 *104:10 *1021:D 38 
*END

*D_NET *105 0.00194364
*CONN
*I *1024:A I *D sky130_fd_sc_hd__nand2_1
*I *1026:B1_N I *D sky130_fd_sc_hd__a21bo_1
*I *1022:Y O *D sky130_fd_sc_hd__nand3_1
*CAP
1 *1024:A 0.000209669
2 *1026:B1_N 0
3 *1022:Y 0.000369178
4 *105:12 0.000209669
5 *105:10 0.000369178
6 *1024:A *1023:A2 5.50049e-05
7 *1024:A *1024:B 3.81946e-05
8 *1024:A *1026:A2 0.000122226
9 *1024:A *1175:RESET_B 3.7122e-06
10 *1024:A *107:10 2.93747e-05
11 *1024:A *304:24 2.64616e-05
12 *105:10 *1022:A 0.0002263
13 *105:10 *1023:B1 0
14 *105:10 *297:450 3.14214e-05
15 *105:10 *297:461 5.85195e-05
16 *105:10 *297:474 2.3529e-05
17 *105:10 *304:10 0
18 *105:10 *304:24 0.000171202
19 *1026:A1 *105:10 0
*RES
1 *1022:Y *105:10 46.6586 
2 *105:10 *105:12 15 
3 *105:12 *1026:B1_N 23 
4 *105:12 *1024:A 27.93 
*END

*D_NET *106 0.00101723
*CONN
*I *1024:B I *D sky130_fd_sc_hd__nand2_1
*I *1026:A2 I *D sky130_fd_sc_hd__a21bo_1
*I *1023:X O *D sky130_fd_sc_hd__a21o_1
*CAP
1 *1024:B 4.26408e-05
2 *1026:A2 0.000266392
3 *1023:X 0
4 *106:4 0.000309032
5 *1026:A2 *1023:A1 5.50106e-05
6 *1026:A2 *1023:A2 0.000183733
7 *1024:A *1024:B 3.81946e-05
8 *1024:A *1026:A2 0.000122226
*RES
1 *1023:X *106:4 23 
2 *106:4 *1026:A2 28.8829 
3 *106:4 *1024:B 24.1186 
*END

*D_NET *107 0.000499031
*CONN
*I *1025:B I *D sky130_fd_sc_hd__xnor2_1
*I *1024:Y O *D sky130_fd_sc_hd__nand2_1
*CAP
1 *1025:B 0
2 *1024:Y 0.000172105
3 *107:10 0.000172105
4 *107:10 *1023:B1 9.21347e-06
5 *107:10 *1175:RESET_B 4.38068e-06
6 *107:10 *111:8 0
7 *107:10 *297:450 0.000111852
8 *1024:A *107:10 2.93747e-05
9 *44:10 *107:10 0
*RES
1 *1024:Y *107:10 41.0036 
2 *107:10 *1025:B 38 
*END

*D_NET *108 0.00198698
*CONN
*I *1022:A I *D sky130_fd_sc_hd__nand3_1
*I *1023:B1 I *D sky130_fd_sc_hd__a21o_1
*I *1027:Q O *D sky130_fd_sc_hd__dfrtp_1
*CAP
1 *1022:A 0.000437966
2 *1023:B1 0.00029711
3 *1027:Q 4.55235e-05
4 *108:8 0.0007806
5 *1022:A *1022:B 4.37033e-05
6 *1022:A *297:461 0
7 *1022:A *297:474 0
8 *1023:B1 *297:450 7.08106e-05
9 *1023:B1 *297:461 0
10 *1023:B1 *304:24 1.83961e-05
11 *1025:A *108:8 2.93845e-05
12 *103:10 *1022:A 2.79662e-05
13 *105:10 *1022:A 0.0002263
14 *105:10 *1023:B1 0
15 *107:10 *1023:B1 9.21347e-06
*RES
1 *1027:Q *108:8 38.6214 
2 *108:8 *1023:B1 43.7379 
3 *108:8 *1022:A 46.6171 
*END

*D_NET *109 0.000313815
*CONN
*I *1027:D I *D sky130_fd_sc_hd__dfrtp_1
*I *1026:X O *D sky130_fd_sc_hd__a21bo_1
*CAP
1 *1027:D 0
2 *1026:X 0.000156908
3 *109:10 0.000156908
4 *109:10 *303:8 0
5 *1026:A1 *109:10 0
*RES
1 *1026:X *109:10 40.5271 
2 *109:10 *1027:D 38 
*END

*D_NET *110 0.00147326
*CONN
*I *1032:A I *D sky130_fd_sc_hd__xnor2_1
*I *1033:A1 I *D sky130_fd_sc_hd__a21bo_1
*I *1028:Q O *D sky130_fd_sc_hd__dfrtp_1
*CAP
1 *1032:A 0
2 *1033:A1 0
3 *1028:Q 0.000106335
4 *110:18 0.000272988
5 *110:12 0.000390561
6 *110:8 0.000223908
7 *110:8 *1028:RESET_B 0
8 *110:8 *1029:C 3.0647e-05
9 *110:8 *298:376 5.56306e-05
10 *110:12 *118:10 7.53384e-06
11 *110:12 *298:365 5.12254e-05
12 *110:18 *1028:RESET_B 0
13 *110:18 *1029:C 8.16253e-05
14 *110:18 *112:8 0.000140958
15 *110:18 *113:10 0
16 *110:18 *114:10 0
17 *110:18 *303:35 0.000111852
*RES
1 *1028:Q *110:8 40.2579 
2 *110:8 *110:12 17.0507 
3 *110:12 *110:18 35.4271 
4 *110:18 *1033:A1 23 
5 *110:12 *1032:A 23 
*END

*D_NET *111 0.000580493
*CONN
*I *1028:D I *D sky130_fd_sc_hd__dfrtp_1
*I *1025:Y O *D sky130_fd_sc_hd__xnor2_1
*CAP
1 *1028:D 0
2 *1025:Y 0.00023214
3 *111:8 0.00023214
4 *111:8 *297:400 0
5 *111:8 *297:450 0
6 *44:10 *111:8 6.46393e-05
7 *44:16 *111:8 5.15745e-05
8 *107:10 *111:8 0
*RES
1 *1025:Y *111:8 42.7229 
2 *111:8 *1028:D 38 
*END

*D_NET *112 0.00104454
*CONN
*I *1033:B1_N I *D sky130_fd_sc_hd__a21bo_1
*I *1031:A I *D sky130_fd_sc_hd__nand2_1
*I *1029:Y O *D sky130_fd_sc_hd__nand3_1
*CAP
1 *1033:B1_N 8.42855e-05
2 *1031:A 0.000196498
3 *1029:Y 0.000100525
4 *112:10 0.000280784
5 *112:8 0.000100525
6 *1031:A *1033:A2 8.59523e-05
7 *1031:A *114:10 5.50106e-05
8 *110:18 *112:8 0.000140958
*RES
1 *1029:Y *112:8 39.9057 
2 *112:8 *112:10 15 
3 *112:10 *1031:A 27.35 
4 *112:10 *1033:B1_N 24.5743 
*END

*D_NET *113 0.00155385
*CONN
*I *1033:A2 I *D sky130_fd_sc_hd__a21bo_1
*I *1031:B I *D sky130_fd_sc_hd__nand2_1
*I *1030:X O *D sky130_fd_sc_hd__a21o_1
*CAP
1 *1033:A2 0.000110781
2 *1031:B 1.7372e-05
3 *1030:X 0.000347415
4 *113:12 0.000128154
5 *113:10 0.000347415
6 *1031:B *114:10 5.37348e-06
7 *1031:B *116:10 2.4754e-05
8 *1033:A2 *114:10 9.24795e-06
9 *1033:A2 *116:10 0.000143655
10 *113:10 *1035:RESET_B 0
11 *113:10 *114:10 0.000292865
12 *113:10 *115:12 4.08641e-05
13 *1031:A *1033:A2 8.59523e-05
14 *110:18 *113:10 0
*RES
1 *1030:X *113:10 43.6964 
2 *113:10 *113:12 15 
3 *113:12 *1031:B 23.6214 
4 *113:12 *1033:A2 26.5214 
*END

*D_NET *114 0.00130764
*CONN
*I *1032:B I *D sky130_fd_sc_hd__xnor2_1
*I *1031:Y O *D sky130_fd_sc_hd__nand2_1
*CAP
1 *1032:B 3.64064e-05
2 *1031:Y 0.00030213
3 *114:10 0.000338537
4 *1032:B *298:365 0.00014196
5 *1032:B *303:35 7.59794e-05
6 *114:10 *1029:C 0
7 *114:10 *115:12 1.69668e-05
8 *114:10 *303:14 0
9 *114:10 *303:35 3.31683e-05
10 *1031:A *114:10 5.50106e-05
11 *1031:B *114:10 5.37348e-06
12 *1033:A2 *114:10 9.24795e-06
13 *110:18 *114:10 0
14 *113:10 *114:10 0.000292865
*RES
1 *1031:Y *114:10 44.1729 
2 *114:10 *1032:B 39.5743 
*END

*D_NET *115 0.000910209
*CONN
*I *1029:A I *D sky130_fd_sc_hd__nand3_1
*I *1030:B1 I *D sky130_fd_sc_hd__a21o_1
*I *1034:Q O *D sky130_fd_sc_hd__dfrtp_1
*CAP
1 *1029:A 4.81781e-05
2 *1030:B1 0
3 *1034:Q 0
4 *115:12 0.000292007
5 *115:4 0.000340185
6 *1029:A *1035:RESET_B 5.67058e-05
7 *1029:A *303:35 2.77855e-05
8 *115:12 *1035:RESET_B 7.73735e-05
9 *115:12 *303:14 1.01436e-05
10 *113:10 *115:12 4.08641e-05
11 *114:10 *115:12 1.69668e-05
*RES
1 *1034:Q *115:4 23 
2 *115:4 *115:12 34.4329 
3 *115:12 *1030:B1 23 
4 *115:4 *1029:A 24.4707 
*END

*D_NET *116 0.00160403
*CONN
*I *1034:D I *D sky130_fd_sc_hd__dfrtp_1
*I *1033:X O *D sky130_fd_sc_hd__a21bo_1
*CAP
1 *1034:D 0
2 *1033:X 0.000717811
3 *116:10 0.000717811
4 *116:10 *1035:RESET_B 0
5 *116:10 *1038:A 0
6 *116:10 *121:8 0
7 *116:10 *302:26 0
8 *1031:B *116:10 2.4754e-05
9 *1033:A2 *116:10 0.000143655
*RES
1 *1033:X *116:10 48.9579 
2 *116:10 *1034:D 38 
*END

*D_NET *117 0.00357589
*CONN
*I *1040:A1 I *D sky130_fd_sc_hd__a21bo_1
*I *1039:A I *D sky130_fd_sc_hd__xnor2_1
*I *1035:Q O *D sky130_fd_sc_hd__dfrtp_1
*CAP
1 *1040:A1 2.15849e-05
2 *1039:A 0
3 *1035:Q 0.000976491
4 *117:26 0.000293422
5 *117:14 0.0012915
6 *117:14 *1034:RESET_B 0.000183983
7 *117:14 *1035:RESET_B 0.000632162
8 *117:26 *1034:RESET_B 4.67488e-05
9 *117:26 *1036:A 4.85126e-05
10 *117:26 *1037:B1 3.82956e-05
11 *117:26 *1039:B 6.17437e-06
12 *117:26 *120:12 3.70187e-05
13 *117:26 *302:18 0
*RES
1 *1035:Q *117:14 39.675 
2 *117:14 *117:26 35.1786 
3 *117:26 *1039:A 23 
4 *117:14 *1040:A1 23.4971 
*END

*D_NET *118 0.00139522
*CONN
*I *1035:D I *D sky130_fd_sc_hd__dfrtp_1
*I *1032:Y O *D sky130_fd_sc_hd__xnor2_1
*CAP
1 *1035:D 0
2 *1032:Y 0.000693844
3 *118:10 0.000693844
4 *44:18 *118:10 0
5 *110:12 *118:10 7.53384e-06
*RES
1 *1032:Y *118:10 47.3214 
2 *118:10 *1035:D 38 
*END

*D_NET *119 0.00112353
*CONN
*I *1040:B1_N I *D sky130_fd_sc_hd__a21bo_1
*I *1038:A I *D sky130_fd_sc_hd__nand2_1
*I *1036:Y O *D sky130_fd_sc_hd__nand3_1
*CAP
1 *1040:B1_N 0
2 *1038:A 0.000158617
3 *1036:Y 0.000123409
4 *119:10 0.000282027
5 *1038:A *1037:A2 0.000133666
6 *1038:A *121:8 0.000221184
7 *1038:A *302:26 6.7177e-06
8 *119:10 *1037:A2 3.47776e-05
9 *119:10 *121:8 8.62783e-05
10 *119:10 *298:354 5.50049e-05
11 *119:10 *302:18 2.18506e-05
12 *116:10 *1038:A 0
*RES
1 *1036:Y *119:10 40.2993 
2 *119:10 *1038:A 42.0186 
3 *119:10 *1040:B1_N 38 
*END

*D_NET *120 0.00103193
*CONN
*I *1038:B I *D sky130_fd_sc_hd__nand2_1
*I *1040:A2 I *D sky130_fd_sc_hd__a21bo_1
*I *1037:X O *D sky130_fd_sc_hd__a21o_1
*CAP
1 *1038:B 0.000146866
2 *1040:A2 0
3 *1037:X 0
4 *120:12 0.000246254
5 *120:4 0.00039312
6 *1038:B *1037:A2 0
7 *120:12 *1037:A2 6.99492e-05
8 *120:12 *1037:B1 0.000138727
9 *117:26 *120:12 3.70187e-05
*RES
1 *1037:X *120:4 23 
2 *120:4 *120:12 33.9564 
3 *120:12 *1040:A2 23 
4 *120:4 *1038:B 25.9207 
*END

*D_NET *121 0.00139552
*CONN
*I *1039:B I *D sky130_fd_sc_hd__xnor2_1
*I *1038:Y O *D sky130_fd_sc_hd__nand2_1
*CAP
1 *1039:B 0.000186329
2 *1038:Y 0.000199771
3 *121:8 0.0003861
4 *1039:B *302:18 0.000180218
5 *121:8 *1035:RESET_B 0
6 *121:8 *1037:A2 4.99753e-06
7 *121:8 *298:326 1.00765e-05
8 *121:8 *298:345 1.02561e-05
9 *1038:A *121:8 0.000221184
10 *41:78 *121:8 0.000104133
11 *116:10 *121:8 0
12 *117:26 *1039:B 6.17437e-06
13 *119:10 *121:8 8.62783e-05
*RES
1 *1038:Y *121:8 43.075 
2 *121:8 *1039:B 41.48 
*END

*D_NET *122 0.00176784
*CONN
*I *1036:A I *D sky130_fd_sc_hd__nand3_1
*I *1037:B1 I *D sky130_fd_sc_hd__a21o_1
*I *1041:Q O *D sky130_fd_sc_hd__dfrtp_1
*CAP
1 *1036:A 6.52866e-05
2 *1037:B1 0.000219035
3 *1041:Q 0.000170655
4 *122:8 0.000454977
5 *1036:A *1037:A2 7.37814e-06
6 *1036:A *298:326 7.37814e-06
7 *1036:A *302:26 0.000114083
8 *1037:B1 *1037:A2 5.3304e-05
9 *1037:B1 *302:26 0.000320008
10 *122:8 *1034:RESET_B 0.000130197
11 *117:26 *1036:A 4.85126e-05
12 *117:26 *1037:B1 3.82956e-05
13 *120:12 *1037:B1 0.000138727
*RES
1 *1041:Q *122:8 40.5271 
2 *122:8 *1037:B1 42.64 
3 *122:8 *1036:A 39.9057 
*END

*D_NET *123 0.00115311
*CONN
*I *1041:D I *D sky130_fd_sc_hd__dfrtp_1
*I *1040:X O *D sky130_fd_sc_hd__a21bo_1
*CAP
1 *1041:D 0
2 *1040:X 0.000341676
3 *123:6 0.000341676
4 *123:6 *1034:RESET_B 0.000340725
5 *123:6 *1041:RESET_B 2.09333e-05
6 *123:6 *222:8 6.17437e-06
7 *123:6 *297:357 0.000101925
*RES
1 *1040:X *123:6 31.7207 
2 *123:6 *1041:D 23 
*END

*D_NET *124 0.00189829
*CONN
*I *1053:A I *D sky130_fd_sc_hd__xnor2_1
*I *1054:A1 I *D sky130_fd_sc_hd__a21bo_1
*I *1042:Q O *D sky130_fd_sc_hd__dfrtp_1
*CAP
1 *1053:A 0.000279897
2 *1054:A1 0
3 *1042:Q 0.000613171
4 *124:10 0.000893069
5 *1053:A *135:10 0
6 *1053:A *136:8 0
7 *124:10 *125:8 1.18615e-05
8 *124:10 *136:8 0
9 *124:10 *137:8 0.000100293
10 *124:10 *298:326 0
11 *124:10 *298:547 0
12 *41:10 *124:10 0
13 *41:27 *124:10 0
14 *41:38 *124:10 0
15 *41:56 *1053:A 0
*RES
1 *1042:Q *124:10 49.455 
2 *124:10 *1054:A1 38 
3 *124:10 *1053:A 42.8886 
*END

*D_NET *125 0.00157343
*CONN
*I *1042:D I *D sky130_fd_sc_hd__dfrtp_1
*I *1039:Y O *D sky130_fd_sc_hd__xnor2_1
*CAP
1 *1042:D 0
2 *1039:Y 0.000734672
3 *125:8 0.000734672
4 *40:31 *125:8 7.38919e-05
5 *40:33 *125:8 1.83327e-05
6 *124:10 *125:8 1.18615e-05
*RES
1 *1039:Y *125:8 32.6943 
2 *125:8 *1042:D 23 
*END

*D_NET *126 0.00118694
*CONN
*I *1047:B1_N I *D sky130_fd_sc_hd__a21bo_1
*I *1045:A I *D sky130_fd_sc_hd__nand2_1
*I *1043:Y O *D sky130_fd_sc_hd__nand3_1
*CAP
1 *1047:B1_N 0
2 *1045:A 0
3 *1043:Y 0.000106262
4 *126:16 0.00020437
5 *126:6 0.000310632
6 *126:6 *129:27 6.17437e-06
7 *126:16 *285:14 0.000280866
8 *126:16 *298:148 5.33597e-05
9 *126:16 *298:154 0.000225275
*RES
1 *1043:Y *126:6 24.0979 
2 *126:6 *126:16 35.7379 
3 *126:16 *1045:A 23 
4 *126:6 *1047:B1_N 23 
*END

*D_NET *127 0.00100642
*CONN
*I *1047:A2 I *D sky130_fd_sc_hd__a21bo_1
*I *1045:B I *D sky130_fd_sc_hd__nand2_1
*I *1044:X O *D sky130_fd_sc_hd__a21o_1
*CAP
1 *1047:A2 0
2 *1045:B 0.000125149
3 *1044:X 0.000292108
4 *127:10 0.000417257
5 *1045:B *283:10 0
6 *1045:B *285:14 0
7 *127:10 *129:14 2.54046e-05
8 *127:10 *283:10 0
9 *127:10 *285:14 0
10 *127:10 *288:10 2.93845e-05
11 *53:16 *1045:B 0.000117121
*RES
1 *1044:X *127:10 43.3443 
2 *127:10 *1045:B 41.3143 
3 *127:10 *1047:A2 38 
*END

*D_NET *128 0.000337234
*CONN
*I *1046:B I *D sky130_fd_sc_hd__xnor2_1
*I *1045:Y O *D sky130_fd_sc_hd__nand2_1
*CAP
1 *1046:B 0
2 *1045:Y 9.30713e-05
3 *128:8 9.30713e-05
4 *128:8 *283:10 0
5 *128:8 *285:14 9.20311e-06
6 *53:16 *128:8 0.000141888
*RES
1 *1045:Y *128:8 40.2579 
2 *128:8 *1046:B 38 
*END

*D_NET *129 0.00174489
*CONN
*I *1043:A I *D sky130_fd_sc_hd__nand3_1
*I *1044:B1 I *D sky130_fd_sc_hd__a21o_1
*I *1048:Q O *D sky130_fd_sc_hd__dfrtp_1
*CAP
1 *1043:A 0
2 *1044:B1 0
3 *1048:Q 5.70324e-05
4 *129:27 0.000142777
5 *129:14 0.000276585
6 *129:6 0.000476394
7 *129:14 *283:10 0
8 *129:14 *285:14 0.000166522
9 *129:27 *1043:B 2.93845e-05
10 *129:27 *284:10 0.000275473
11 *129:27 *298:148 0.000277695
12 *129:27 *298:154 1.14452e-05
13 *126:6 *129:27 6.17437e-06
14 *127:10 *129:14 2.54046e-05
*RES
1 *1048:Q *129:6 23.6214 
2 *129:6 *129:14 34.3086 
3 *129:14 *1044:B1 23 
4 *129:6 *129:27 34.7643 
5 *129:27 *1043:A 23 
*END

*D_NET *130 0.000808076
*CONN
*I *1048:D I *D sky130_fd_sc_hd__dfrtp_1
*I *1047:X O *D sky130_fd_sc_hd__a21bo_1
*CAP
1 *1048:D 0
2 *1047:X 0.000321283
3 *130:10 0.000321283
4 *130:10 *280:10 0.000110922
5 *130:10 *281:10 5.45887e-05
*RES
1 *1047:X *130:10 42.5571 
2 *130:10 *1048:D 38 
*END

*D_NET *131 0.00269303
*CONN
*I *1123:A I *D sky130_fd_sc_hd__xnor2_1
*I *1124:A1 I *D sky130_fd_sc_hd__a21bo_1
*I *1049:Q O *D sky130_fd_sc_hd__dfrtp_1
*CAP
1 *1123:A 0
2 *1124:A1 0.000382962
3 *1049:Q 0.000762303
4 *131:12 0.000382962
5 *131:10 0.000762303
6 *1124:A1 *1124:A2 9.67842e-05
7 *1124:A1 *204:12 0.000124306
8 *131:10 *206:10 0
9 *131:10 *283:10 0
10 *131:10 *284:10 0
11 *131:10 *285:14 0.000181412
12 *131:10 *298:154 0
*RES
1 *1049:Q *131:10 49.9729 
2 *131:10 *131:12 15 
3 *131:12 *1124:A1 29.5043 
4 *131:12 *1123:A 23 
*END

*D_NET *132 0.000548667
*CONN
*I *1049:D I *D sky130_fd_sc_hd__dfrtp_1
*I *1046:Y O *D sky130_fd_sc_hd__xnor2_1
*CAP
1 *1049:D 0.000107976
2 *1046:Y 9.07291e-05
3 *132:8 0.000198705
4 *1049:D *1049:RESET_B 9.91798e-05
5 *1049:D *297:645 6.17437e-06
6 *132:8 *283:10 4.59027e-05
7 *132:8 *285:14 0
*RES
1 *1046:Y *132:8 39.9057 
2 *132:8 *1049:D 40.0507 
*END

*D_NET *133 0.00150615
*CONN
*I *1054:B1_N I *D sky130_fd_sc_hd__a21bo_1
*I *1052:A I *D sky130_fd_sc_hd__nand2_1
*I *1050:Y O *D sky130_fd_sc_hd__nand3_1
*CAP
1 *1054:B1_N 0
2 *1052:A 0.000203986
3 *1050:Y 0.000324586
4 *133:8 0.000528572
5 *1052:A *1052:B 8.77027e-05
6 *1052:A *134:6 0.000119313
7 *133:8 *1050:A 1.03836e-05
8 *133:8 *1051:A1 0.00010018
9 *133:8 *1051:A2 2.18506e-05
10 *133:8 *134:6 1.03836e-05
11 *133:8 *136:12 9.91895e-05
*RES
1 *1050:Y *133:8 27.93 
2 *133:8 *1052:A 27.4536 
3 *133:8 *1054:B1_N 23 
*END

*D_NET *134 0.000925399
*CONN
*I *1054:A2 I *D sky130_fd_sc_hd__a21bo_1
*I *1052:B I *D sky130_fd_sc_hd__nand2_1
*I *1051:X O *D sky130_fd_sc_hd__a21o_1
*CAP
1 *1054:A2 0
2 *1052:B 0.000117501
3 *1051:X 0.000171962
4 *134:6 0.000289464
5 *1052:B *135:10 3.22879e-05
6 *134:6 *136:12 9.67842e-05
7 *1052:A *1052:B 8.77027e-05
8 *1052:A *134:6 0.000119313
9 *133:8 *134:6 1.03836e-05
*RES
1 *1051:X *134:6 26.9564 
2 *134:6 *1052:B 26.0243 
3 *134:6 *1054:A2 23 
*END

*D_NET *135 0.000326784
*CONN
*I *1053:B I *D sky130_fd_sc_hd__xnor2_1
*I *1052:Y O *D sky130_fd_sc_hd__nand2_1
*CAP
1 *1053:B 0
2 *1052:Y 0.000147248
3 *135:10 0.000147248
4 *1052:B *135:10 3.22879e-05
5 *1053:A *135:10 0
6 *40:16 *135:10 0
*RES
1 *1052:Y *135:10 40.5271 
2 *135:10 *1053:B 38 
*END

*D_NET *136 0.00136956
*CONN
*I *1050:A I *D sky130_fd_sc_hd__nand3_1
*I *1051:B1 I *D sky130_fd_sc_hd__a21o_1
*I *1055:Q O *D sky130_fd_sc_hd__dfrtp_1
*CAP
1 *1050:A 9.2922e-05
2 *1051:B1 0
3 *1055:Q 0.000223993
4 *136:12 0.00016141
5 *136:8 0.000292481
6 *1050:A *1051:A1 3.61695e-05
7 *1050:A *1051:A2 9.84851e-05
8 *1050:A *298:572 0.00010018
9 *1053:A *136:8 0
10 *41:38 *136:8 6.7253e-05
11 *41:56 *136:8 9.03054e-05
12 *124:10 *136:8 0
13 *133:8 *1050:A 1.03836e-05
14 *133:8 *136:12 9.91895e-05
15 *134:6 *136:12 9.67842e-05
*RES
1 *1055:Q *136:8 42.7229 
2 *136:8 *136:12 17.0507 
3 *136:12 *1051:B1 23 
4 *136:12 *1050:A 26.045 
*END

*D_NET *137 0.00122213
*CONN
*I *1055:D I *D sky130_fd_sc_hd__dfrtp_1
*I *1054:X O *D sky130_fd_sc_hd__a21bo_1
*CAP
1 *1055:D 0.000272992
2 *1054:X 0.000184883
3 *137:8 0.000457875
4 *1055:CLK *1055:D 0.000176699
5 *41:14 *1055:D 2.93845e-05
6 *124:10 *137:8 0.000100293
*RES
1 *1054:X *137:8 42.0186 
2 *137:8 *1055:D 42.0238 
*END

*D_NET *138 0.00265652
*CONN
*I *1060:A I *D sky130_fd_sc_hd__xnor2_1
*I *1061:A1 I *D sky130_fd_sc_hd__a21bo_1
*I *1056:Q O *D sky130_fd_sc_hd__dfrtp_1
*CAP
1 *1060:A 0
2 *1061:A1 1.08768e-05
3 *1056:Q 0.000384174
4 *138:25 0.000111701
5 *138:12 0.000192845
6 *138:8 0.00045444
7 *1061:A1 *1059:B 5.50049e-05
8 *1061:A1 *140:12 5.67058e-05
9 *138:8 *1020:RESET_B 0.000196549
10 *138:8 *302:14 0.000396507
11 *138:8 *303:8 0
12 *138:12 *1059:A 0.000139352
13 *138:12 *1059:B 0.000265477
14 *138:12 *140:12 0.000127821
15 *138:25 *1057:A 0
16 *138:25 *140:8 0
17 *138:25 *141:10 6.79006e-05
18 *138:25 *142:10 0.00014411
19 *138:25 *143:8 0
20 *138:25 *293:18 5.30518e-05
*RES
1 *1056:Q *138:8 48.3571 
2 *138:8 *138:12 18.0036 
3 *138:12 *1061:A1 23.6214 
4 *138:12 *138:25 33.3143 
5 *138:25 *1060:A 23 
*END

*D_NET *139 0.000524056
*CONN
*I *1056:D I *D sky130_fd_sc_hd__dfrtp_1
*I *1053:Y O *D sky130_fd_sc_hd__xnor2_1
*CAP
1 *1056:D 0
2 *1053:Y 0.000234218
3 *139:10 0.000234218
4 *41:56 *139:10 5.56203e-05
*RES
1 *1053:Y *139:10 41.6043 
2 *139:10 *1056:D 38 
*END

*D_NET *140 0.00194449
*CONN
*I *1059:A I *D sky130_fd_sc_hd__nand2_1
*I *1061:B1_N I *D sky130_fd_sc_hd__a21bo_1
*I *1057:Y O *D sky130_fd_sc_hd__nand3_1
*CAP
1 *1059:A 0.0001446
2 *1061:B1_N 0
3 *1057:Y 0.000236393
4 *140:12 0.000356829
5 *140:8 0.000448622
6 *1059:A *1059:B 5.38709e-05
7 *140:8 *1057:A 0.000129504
8 *140:8 *1058:A2 0
9 *140:8 *141:10 0
10 *140:8 *143:8 0.000171906
11 *140:8 *293:18 0
12 *140:12 *1059:B 2.4754e-05
13 *140:12 *144:6 5.41385e-05
14 *1061:A1 *140:12 5.67058e-05
15 *138:12 *1059:A 0.000139352
16 *138:12 *140:12 0.000127821
17 *138:25 *140:8 0
*RES
1 *1057:Y *140:8 43.4271 
2 *140:8 *140:12 19.4329 
3 *140:12 *1061:B1_N 23 
4 *140:12 *1059:A 26.0243 
*END

*D_NET *141 0.00139545
*CONN
*I *1059:B I *D sky130_fd_sc_hd__nand2_1
*I *1061:A2 I *D sky130_fd_sc_hd__a21bo_1
*I *1058:X O *D sky130_fd_sc_hd__a21o_1
*CAP
1 *1059:B 0.00021878
2 *1061:A2 0
3 *1058:X 0.000130529
4 *141:12 0.00021878
5 *141:10 0.000130529
6 *1059:B *142:10 0.000196652
7 *141:10 *1058:A1 5.26733e-06
8 *141:10 *143:8 2.79004e-05
9 *1059:A *1059:B 5.38709e-05
10 *1061:A1 *1059:B 5.50049e-05
11 *138:12 *1059:B 0.000265477
12 *138:25 *141:10 6.79006e-05
13 *140:8 *141:10 0
14 *140:12 *1059:B 2.4754e-05
*RES
1 *1058:X *141:10 40.5271 
2 *141:10 *141:12 15 
3 *141:12 *1061:A2 23 
4 *141:12 *1059:B 29.3593 
*END

*D_NET *142 0.00109733
*CONN
*I *1060:B I *D sky130_fd_sc_hd__xnor2_1
*I *1059:Y O *D sky130_fd_sc_hd__nand2_1
*CAP
1 *1060:B 0
2 *1059:Y 0.000307347
3 *142:10 0.000307347
4 *142:10 *293:18 0.000141879
5 *1059:B *142:10 0.000196652
6 *138:25 *142:10 0.00014411
*RES
1 *1059:Y *142:10 43.8621 
2 *142:10 *1060:B 38 
*END

*D_NET *143 0.000836721
*CONN
*I *1057:A I *D sky130_fd_sc_hd__nand3_1
*I *1058:B1 I *D sky130_fd_sc_hd__a21o_1
*I *1062:Q O *D sky130_fd_sc_hd__dfrtp_1
*CAP
1 *1057:A 0.000157046
2 *1058:B1 0
3 *1062:Q 6.91579e-05
4 *143:8 0.000226203
5 *1057:A *1057:B 5.50049e-05
6 *1057:A *1058:A1 0
7 *1057:A *1058:A2 0
8 *1057:A *293:12 0
9 *1057:A *293:18 0
10 *138:25 *1057:A 0
11 *138:25 *143:8 0
12 *140:8 *1057:A 0.000129504
13 *140:8 *143:8 0.000171906
14 *141:10 *143:8 2.79004e-05
*RES
1 *1062:Q *143:8 40.2579 
2 *143:8 *1058:B1 38 
3 *143:8 *1057:A 41.2314 
*END

*D_NET *144 0.000996284
*CONN
*I *1062:D I *D sky130_fd_sc_hd__dfrtp_1
*I *1061:X O *D sky130_fd_sc_hd__a21bo_1
*CAP
1 *1062:D 0
2 *1061:X 0.000409533
3 *144:6 0.000409533
4 *144:6 *1062:RESET_B 0.00012308
5 *140:12 *144:6 5.41385e-05
*RES
1 *1061:X *144:6 31.2443 
2 *144:6 *1062:D 23 
*END

*D_NET *145 0.00101578
*CONN
*I *1067:A I *D sky130_fd_sc_hd__xnor2_1
*I *1068:A1 I *D sky130_fd_sc_hd__a21bo_1
*I *1063:Q O *D sky130_fd_sc_hd__dfrtp_1
*CAP
1 *1067:A 0
2 *1068:A1 8.93929e-05
3 *1063:Q 0.000231434
4 *145:19 0.000129765
5 *145:6 0.000450592
6 *145:6 *1068:B1_N 2.30292e-05
7 *145:19 *1068:B1_N 6.93449e-05
8 *145:19 *148:12 0
9 *145:19 *150:12 2.22183e-05
10 *145:19 *282:14 0
11 *145:19 *298:802 0
*RES
1 *1063:Q *145:6 26.9564 
2 *145:6 *1068:A1 24.5743 
3 *145:6 *145:19 32.9621 
4 *145:19 *1067:A 23 
*END

*D_NET *146 0.00228026
*CONN
*I *1063:D I *D sky130_fd_sc_hd__dfrtp_1
*I *1060:Y O *D sky130_fd_sc_hd__xnor2_1
*CAP
1 *1063:D 0.000210373
2 *1060:Y 0.000483299
3 *146:10 0.000693672
4 *146:10 *1013:RESET_B 0.00014411
5 *146:10 *297:181 0.000241616
6 *146:10 *302:10 0
7 *146:10 *302:14 0
8 *146:10 *303:8 5.30621e-05
9 *1013:CLK *146:10 0.00022378
10 *1063:CLK *1063:D 0.000126708
11 *95:12 *146:10 0.000103637
*RES
1 *1060:Y *146:10 48.9164 
2 *146:10 *1063:D 41.9564 
*END

*D_NET *147 0.00116789
*CONN
*I *1066:A I *D sky130_fd_sc_hd__nand2_1
*I *1068:B1_N I *D sky130_fd_sc_hd__a21bo_1
*I *1064:Y O *D sky130_fd_sc_hd__nand3_1
*CAP
1 *1066:A 7.32233e-05
2 *1068:B1_N 0.000132342
3 *1064:Y 0.000129861
4 *147:8 0.000335426
5 *1066:A *149:8 7.70737e-05
6 *1066:A *150:12 0
7 *1066:A *282:14 7.90568e-05
8 *1068:B1_N *149:8 6.70363e-05
9 *1068:B1_N *150:12 0
10 *1068:B1_N *282:14 0.000108662
11 *147:8 *1064:A 8.08139e-06
12 *147:8 *153:10 5.3304e-05
13 *39:24 *1066:A 1.14452e-05
14 *145:6 *1068:B1_N 2.30292e-05
15 *145:19 *1068:B1_N 6.93449e-05
*RES
1 *1064:Y *147:8 39.5743 
2 *147:8 *1068:B1_N 41.5836 
3 *147:8 *1066:A 40.2579 
*END

*D_NET *148 0.00117873
*CONN
*I *1066:B I *D sky130_fd_sc_hd__nand2_1
*I *1068:A2 I *D sky130_fd_sc_hd__a21bo_1
*I *1065:X O *D sky130_fd_sc_hd__a21o_1
*CAP
1 *1066:B 7.22185e-05
2 *1068:A2 0
3 *1065:X 0
4 *148:12 0.000271451
5 *148:4 0.000343669
6 *1066:B *1065:A2 0
7 *1066:B *298:830 5.67058e-05
8 *148:12 *150:12 0.000223034
9 *148:12 *298:802 0.00018039
10 *148:12 *298:830 3.12591e-05
11 *145:19 *148:12 0
*RES
1 *1065:X *148:4 23 
2 *148:4 *148:12 36.2971 
3 *148:12 *1068:A2 23 
4 *148:4 *1066:B 24.8229 
*END

*D_NET *149 0.000294768
*CONN
*I *1067:B I *D sky130_fd_sc_hd__xnor2_1
*I *1066:Y O *D sky130_fd_sc_hd__nand2_1
*CAP
1 *1067:B 0
2 *1066:Y 7.53289e-05
3 *149:8 7.53289e-05
4 *149:8 *150:12 0
5 *1066:A *149:8 7.70737e-05
6 *1068:B1_N *149:8 6.70363e-05
*RES
1 *1066:Y *149:8 39.9057 
2 *149:8 *1067:B 38 
*END

*D_NET *150 0.00151937
*CONN
*I *1064:A I *D sky130_fd_sc_hd__nand3_1
*I *1065:B1 I *D sky130_fd_sc_hd__a21o_1
*I *1069:Q O *D sky130_fd_sc_hd__dfrtp_1
*CAP
1 *1064:A 0.000370348
2 *1065:B1 0
3 *1069:Q 9.9377e-05
4 *150:12 0.000143914
5 *150:6 0.000613639
6 *1064:A *153:10 1.05235e-05
7 *150:12 *298:802 2.82307e-05
8 *1066:A *150:12 0
9 *1068:B1_N *150:12 0
10 *145:19 *150:12 2.22183e-05
11 *147:8 *1064:A 8.08139e-06
12 *148:12 *150:12 0.000223034
13 *149:8 *150:12 0
*RES
1 *1069:Q *150:6 24.0979 
2 *150:6 *150:12 34.0186 
3 *150:12 *1065:B1 23 
4 *150:6 *1064:A 27.8057 
*END

*D_NET *151 0.00140481
*CONN
*I *1069:D I *D sky130_fd_sc_hd__dfrtp_1
*I *1068:X O *D sky130_fd_sc_hd__a21bo_1
*CAP
1 *1069:D 5.74161e-05
2 *1068:X 0.000573348
3 *151:10 0.000630764
4 *1069:D *1069:RESET_B 0.000143286
5 *1105:CLK *151:10 0
*RES
1 *1068:X *151:10 45.4157 
2 *151:10 *1069:D 39.5743 
*END

*D_NET *152 0.00169133
*CONN
*I *1074:A I *D sky130_fd_sc_hd__xnor2_1
*I *1075:A1 I *D sky130_fd_sc_hd__a21bo_1
*I *1070:Q O *D sky130_fd_sc_hd__dfrtp_1
*CAP
1 *1074:A 3.21691e-05
2 *1075:A1 0.000284972
3 *1070:Q 0.000229987
4 *152:10 0.000547129
5 *1074:A *282:14 0
6 *1074:A *296:12 5.15096e-05
7 *1075:A1 *1073:A 1.22822e-05
8 *1075:A1 *1073:B 0.000142719
9 *1075:A1 *1074:B 0.000182826
10 *152:10 *282:14 0
11 *152:10 *296:12 0.000114083
12 *152:10 *297:233 9.36522e-05
*RES
1 *1070:Q *152:10 42.0807 
2 *152:10 *1075:A1 43.8829 
3 *152:10 *1074:A 38.8493 
*END

*D_NET *153 0.00187634
*CONN
*I *1070:D I *D sky130_fd_sc_hd__dfrtp_1
*I *1067:Y O *D sky130_fd_sc_hd__xnor2_1
*CAP
1 *1070:D 0
2 *1067:Y 0.000541396
3 *153:10 0.000541396
4 *153:10 *1007:RESET_B 1.94812e-05
5 *153:10 *297:171 3.70187e-05
6 *153:10 *297:173 0.00032159
7 *153:10 *303:8 0.000351626
8 *1064:A *153:10 1.05235e-05
9 *147:8 *153:10 5.3304e-05
*RES
1 *1067:Y *153:10 49.0614 
2 *153:10 *1070:D 38 
*END

*D_NET *154 0.000980718
*CONN
*I *1075:B1_N I *D sky130_fd_sc_hd__a21bo_1
*I *1073:A I *D sky130_fd_sc_hd__nand2_1
*I *1071:Y O *D sky130_fd_sc_hd__nand3_1
*CAP
1 *1075:B1_N 0
2 *1073:A 0.000107029
3 *1071:Y 0.00032172
4 *154:12 0.000107029
5 *154:10 0.00032172
6 *1073:A *1073:B 5.67058e-05
7 *1073:A *1074:B 3.22879e-05
8 *154:10 *1071:A 6.17437e-06
9 *154:10 *1071:C 1.5769e-05
10 *154:10 *297:233 0
11 *1075:A1 *1073:A 1.22822e-05
*RES
1 *1071:Y *154:10 42.205 
2 *154:10 *154:12 15 
3 *154:12 *1073:A 25.5686 
4 *154:12 *1075:B1_N 23 
*END

*D_NET *155 0.00133542
*CONN
*I *1073:B I *D sky130_fd_sc_hd__nand2_1
*I *1075:A2 I *D sky130_fd_sc_hd__a21bo_1
*I *1072:X O *D sky130_fd_sc_hd__a21o_1
*CAP
1 *1073:B 0.000129205
2 *1075:A2 0
3 *1072:X 0.000226865
4 *155:12 0.000129205
5 *155:10 0.000226865
6 *155:10 *1071:A 6.48142e-05
7 *155:10 *1072:B1 0.00030233
8 *155:10 *297:233 0
9 *155:10 *298:789 5.67058e-05
10 *1073:A *1073:B 5.67058e-05
11 *1075:A1 *1073:B 0.000142719
*RES
1 *1072:X *155:10 43.3443 
2 *155:10 *155:12 15 
3 *155:12 *1075:A2 23 
4 *155:12 *1073:B 26.5007 
*END

*D_NET *156 0.000364386
*CONN
*I *1074:B I *D sky130_fd_sc_hd__xnor2_1
*I *1073:Y O *D sky130_fd_sc_hd__nand2_1
*CAP
1 *1074:B 7.46363e-05
2 *1073:Y 7.46363e-05
3 *1073:A *1074:B 3.22879e-05
4 *1075:A1 *1074:B 0.000182826
*RES
1 *1073:Y *1074:B 48.0507 
*END

*D_NET *157 0.00195236
*CONN
*I *1071:A I *D sky130_fd_sc_hd__nand3_1
*I *1072:B1 I *D sky130_fd_sc_hd__a21o_1
*I *1076:Q O *D sky130_fd_sc_hd__dfrtp_1
*CAP
1 *1071:A 0.000198824
2 *1072:B1 0.000148902
3 *1076:Q 9.47052e-05
4 *157:8 0.000442431
5 *1071:A *1071:C 9.64943e-05
6 *1071:A *1072:A1 0.000236087
7 *1071:A *295:14 3.64246e-05
8 *1071:A *297:233 0
9 *1071:A *297:247 0
10 *1072:B1 *1072:A1 0.000295844
11 *1072:B1 *298:196 0
12 *157:8 *158:6 2.93335e-05
13 *154:10 *1071:A 6.17437e-06
14 *155:10 *1071:A 6.48142e-05
15 *155:10 *1072:B1 0.00030233
*RES
1 *1076:Q *157:8 39.0979 
2 *157:8 *1072:B1 42.7229 
3 *157:8 *1071:A 42.7643 
*END

*D_NET *158 0.0010313
*CONN
*I *1076:D I *D sky130_fd_sc_hd__dfrtp_1
*I *1075:X O *D sky130_fd_sc_hd__a21bo_1
*CAP
1 *1076:D 0
2 *1075:X 0.00039749
3 *158:6 0.00039749
4 *158:6 *1076:RESET_B 0.000127442
5 *42:44 *158:6 7.95405e-05
6 *157:8 *158:6 2.93335e-05
*RES
1 *1075:X *158:6 31.2443 
2 *158:6 *1076:D 23 
*END

*D_NET *159 0.00192074
*CONN
*I *1082:A1 I *D sky130_fd_sc_hd__a21bo_1
*I *1081:A I *D sky130_fd_sc_hd__xnor2_1
*I *1077:Q O *D sky130_fd_sc_hd__dfrtp_1
*CAP
1 *1082:A1 0.000253076
2 *1081:A 9.88393e-05
3 *1077:Q 0.000182158
4 *159:8 0.000534074
5 *1081:A *166:10 0.000180224
6 *1082:A1 *1082:A2 5.67058e-05
7 *1082:A1 *163:10 6.17437e-06
8 *1082:A1 *165:10 3.16784e-05
9 *1082:A1 *295:14 0
10 *1082:A1 *297:247 0.000223043
11 *159:8 *295:14 0
12 *159:8 *297:247 0.000354769
*RES
1 *1077:Q *159:8 42.7229 
2 *159:8 *1081:A 40.0507 
3 *159:8 *1082:A1 43.4893 
*END

*D_NET *160 0.00092694
*CONN
*I *1077:D I *D sky130_fd_sc_hd__dfrtp_1
*I *1074:Y O *D sky130_fd_sc_hd__xnor2_1
*CAP
1 *1077:D 0
2 *1074:Y 0.000331889
3 *160:10 0.000331889
4 *160:10 *293:12 3.56537e-05
5 *160:10 *302:10 5.56203e-05
6 *959:A *160:10 0.000171888
*RES
1 *1074:Y *160:10 43.51 
2 *160:10 *1077:D 38 
*END

*D_NET *161 0.00133598
*CONN
*I *1082:B1_N I *D sky130_fd_sc_hd__a21bo_1
*I *1080:A I *D sky130_fd_sc_hd__nand2_1
*I *1078:Y O *D sky130_fd_sc_hd__nand3_1
*CAP
1 *1082:B1_N 0.000120036
2 *1080:A 0
3 *1078:Y 0.000199067
4 *161:12 0.000120036
5 *161:10 0.000199067
6 *1082:B1_N *1082:A2 5.3304e-05
7 *1082:B1_N *163:10 1.32939e-05
8 *161:10 *999:RESET_B 5.3304e-05
9 *161:10 *162:8 0.000134585
10 *161:10 *164:8 8.85189e-05
11 *161:10 *293:12 0.000354769
*RES
1 *1078:Y *161:10 43.3443 
2 *161:10 *161:12 15 
3 *161:12 *1080:A 23 
4 *161:12 *1082:B1_N 25.0714 
*END

*D_NET *162 0.0012482
*CONN
*I *1080:B I *D sky130_fd_sc_hd__nand2_1
*I *1082:A2 I *D sky130_fd_sc_hd__a21bo_1
*I *1079:X O *D sky130_fd_sc_hd__a21o_1
*CAP
1 *1080:B 0
2 *1082:A2 0.00012132
3 *1079:X 0.000118364
4 *162:10 0.00012132
5 *162:8 0.000118364
6 *1082:A2 *163:10 8.09453e-05
7 *162:8 *164:8 8.85189e-05
8 *162:8 *282:14 0.000354778
9 *1082:A1 *1082:A2 5.67058e-05
10 *1082:B1_N *1082:A2 5.3304e-05
11 *161:10 *162:8 0.000134585
*RES
1 *1079:X *162:8 42.7229 
2 *162:8 *162:10 15 
3 *162:10 *1082:A2 26.0036 
4 *162:10 *1080:B 23 
*END

*D_NET *163 0.000751577
*CONN
*I *1081:B I *D sky130_fd_sc_hd__xnor2_1
*I *1080:Y O *D sky130_fd_sc_hd__nand2_1
*CAP
1 *1081:B 0
2 *1080:Y 0.000289155
3 *163:10 0.000289155
4 *163:10 *282:14 0
5 *163:10 *296:12 7.28526e-05
6 *1082:A1 *163:10 6.17437e-06
7 *1082:A2 *163:10 8.09453e-05
8 *1082:B1_N *163:10 1.32939e-05
*RES
1 *1080:Y *163:10 42.9093 
2 *163:10 *1081:B 38 
*END

*D_NET *164 0.000700556
*CONN
*I *1078:A I *D sky130_fd_sc_hd__nand3_1
*I *1079:B1 I *D sky130_fd_sc_hd__a21o_1
*I *1083:Q O *D sky130_fd_sc_hd__dfrtp_1
*CAP
1 *1078:A 0
2 *1079:B1 4.56956e-05
3 *1083:Q 6.81234e-05
4 *164:10 4.56956e-05
5 *164:8 6.81234e-05
6 *1079:B1 *999:RESET_B 7.44257e-05
7 *1079:B1 *298:63 0.000139352
8 *164:8 *282:14 3.82956e-05
9 *164:8 *293:12 3.36638e-05
10 *164:8 *294:27 1.01436e-05
11 *161:10 *164:8 8.85189e-05
12 *162:8 *164:8 8.85189e-05
*RES
1 *1083:Q *164:8 40.2579 
2 *164:8 *164:10 15 
3 *164:10 *1079:B1 24.5743 
4 *164:10 *1078:A 23 
*END

*D_NET *165 0.00076259
*CONN
*I *1083:D I *D sky130_fd_sc_hd__dfrtp_1
*I *1082:X O *D sky130_fd_sc_hd__a21bo_1
*CAP
1 *1083:D 0
2 *1082:X 0.000346386
3 *165:10 0.000346386
4 *165:10 *295:14 3.81391e-05
5 *165:10 *297:247 0
6 *1082:A1 *165:10 3.16784e-05
*RES
1 *1082:X *165:10 43.0336 
2 *165:10 *1083:D 38 
*END

*D_NET *166 0.003196
*CONN
*I *1088:A I *D sky130_fd_sc_hd__xnor2_1
*I *1089:A1 I *D sky130_fd_sc_hd__a21bo_1
*I *1084:Q O *D sky130_fd_sc_hd__dfrtp_1
*CAP
1 *1088:A 0
2 *1089:A1 0
3 *1084:Q 0.000758493
4 *166:24 0.000411401
5 *166:10 0.00116989
6 *166:10 *167:6 2.72257e-05
7 *166:24 *1089:A2 9.64943e-05
8 *166:24 *168:14 8.71559e-05
9 *166:24 *171:22 3.84421e-05
10 *166:24 *298:35 0.000185306
11 *166:24 *298:194 0.000223043
12 *1081:A *166:10 0.000180224
13 *42:103 *166:24 1.83261e-05
*RES
1 *1084:Q *166:10 35.5736 
2 *166:10 *166:24 38.7414 
3 *166:24 *1089:A1 23 
4 *166:10 *1088:A 23 
*END

*D_NET *167 0.00146737
*CONN
*I *1084:D I *D sky130_fd_sc_hd__dfrtp_1
*I *1081:Y O *D sky130_fd_sc_hd__xnor2_1
*CAP
1 *1084:D 0
2 *1081:Y 0.000654257
3 *167:6 0.000654257
4 *43:54 *167:6 0.000131629
5 *166:10 *167:6 2.72257e-05
*RES
1 *1081:Y *167:6 31.7829 
2 *167:6 *1084:D 23 
*END

*D_NET *168 0.000966649
*CONN
*I *1087:A I *D sky130_fd_sc_hd__nand2_1
*I *1089:B1_N I *D sky130_fd_sc_hd__a21bo_1
*I *1085:Y O *D sky130_fd_sc_hd__nand3_1
*CAP
1 *1087:A 0.000104887
2 *1089:B1_N 0
3 *1085:Y 0
4 *168:14 0.00018339
5 *168:4 0.000288277
6 *1087:A *1085:B 1.59071e-05
7 *1087:A *171:22 8.17177e-05
8 *168:14 *169:25 5.3304e-05
9 *168:14 *171:22 0.000137351
10 *168:14 *298:186 6.17437e-06
11 *168:14 *298:194 8.48502e-06
12 *166:24 *168:14 8.71559e-05
*RES
1 *1085:Y *168:4 23 
2 *168:4 *168:14 32.9207 
3 *168:14 *1089:B1_N 23 
4 *168:4 *1087:A 24.9471 
*END

*D_NET *169 0.00206198
*CONN
*I *1087:B I *D sky130_fd_sc_hd__nand2_1
*I *1089:A2 I *D sky130_fd_sc_hd__a21bo_1
*I *1086:X O *D sky130_fd_sc_hd__a21o_1
*CAP
1 *1087:B 0
2 *1089:A2 8.20245e-05
3 *1086:X 2.38698e-05
4 *169:25 0.000370016
5 *169:6 0.000475911
6 *1089:A2 *298:35 9.94414e-05
7 *169:6 *171:22 5.3304e-05
8 *169:6 *298:35 9.84794e-05
9 *169:25 *1085:B 0.000193221
10 *169:25 *1086:A1 5.54294e-05
11 *169:25 *1086:A2 5.56279e-05
12 *169:25 *171:22 0.000140935
13 *169:25 *292:12 3.43144e-05
14 *169:25 *295:14 0.000167452
15 *1083:CLK *169:25 6.21539e-05
16 *166:24 *1089:A2 9.64943e-05
17 *168:14 *169:25 5.3304e-05
*RES
1 *1086:X *169:6 24.0979 
2 *169:6 *1089:A2 25.0507 
3 *169:6 *169:25 38.1614 
4 *169:25 *1087:B 23 
*END

*D_NET *170 0.000506305
*CONN
*I *1088:B I *D sky130_fd_sc_hd__xnor2_1
*I *1087:Y O *D sky130_fd_sc_hd__nand2_1
*CAP
1 *1088:B 0
2 *1087:Y 0.000155148
3 *170:10 0.000155148
4 *170:10 *1085:B 5.40337e-05
5 *42:103 *170:10 0.000141975
*RES
1 *1087:Y *170:10 41.0036 
2 *170:10 *1088:B 38 
*END

*D_NET *171 0.00153489
*CONN
*I *1086:B1 I *D sky130_fd_sc_hd__a21o_1
*I *1085:A I *D sky130_fd_sc_hd__nand3_1
*I *1090:Q O *D sky130_fd_sc_hd__dfrtp_1
*CAP
1 *1086:B1 0
2 *1085:A 0
3 *1090:Q 9.38027e-05
4 *171:22 0.000201339
5 *171:10 0.000201339
6 *171:8 9.38027e-05
7 *171:8 *1086:A2 2.50756e-05
8 *171:8 *298:54 4.69088e-05
9 *171:22 *1085:B 4.0578e-05
10 *171:22 *298:35 1.56542e-05
11 *171:22 *298:194 6.17437e-06
12 *1083:CLK *171:22 5.56279e-05
13 *1087:A *171:22 8.17177e-05
14 *42:103 *171:8 1.03972e-05
15 *42:103 *171:22 0.00015795
16 *42:120 *171:8 0.00013449
17 *166:24 *171:22 3.84421e-05
18 *168:14 *171:22 0.000137351
19 *169:6 *171:22 5.3304e-05
20 *169:25 *171:22 0.000140935
*RES
1 *1090:Q *171:8 40.2579 
2 *171:8 *171:10 15 
3 *171:10 *171:22 35.4271 
4 *171:22 *1085:A 23 
5 *171:10 *1086:B1 23 
*END

*D_NET *172 0.00081075
*CONN
*I *1090:D I *D sky130_fd_sc_hd__dfrtp_1
*I *1089:X O *D sky130_fd_sc_hd__a21bo_1
*CAP
1 *1090:D 0
2 *1089:X 0.000301344
3 *172:10 0.000301344
4 *172:10 *290:14 6.93449e-05
5 *172:10 *297:286 0.000138718
*RES
1 *1089:X *172:10 42.9093 
2 *172:10 *1090:D 38 
*END

*D_NET *173 0.00129356
*CONN
*I *1095:A I *D sky130_fd_sc_hd__xnor2_1
*I *1096:A1 I *D sky130_fd_sc_hd__a21bo_1
*I *1091:Q O *D sky130_fd_sc_hd__dfrtp_1
*CAP
1 *1095:A 0
2 *1096:A1 0
3 *1091:Q 0.000158612
4 *173:14 0.000331284
5 *173:8 0.000489897
6 *173:8 *1095:B 9.76261e-05
7 *173:14 *271:8 0
8 *173:14 *286:8 0.000216136
*RES
1 *1091:Q *173:8 26.0243 
2 *173:8 *173:14 38.2443 
3 *173:14 *1096:A1 23 
4 *173:8 *1095:A 23 
*END

*D_NET *174 0.000484722
*CONN
*I *1091:D I *D sky130_fd_sc_hd__dfrtp_1
*I *1088:Y O *D sky130_fd_sc_hd__xnor2_1
*CAP
1 *1091:D 0.000115683
2 *1088:Y 8.33898e-05
3 *174:8 0.000199073
4 *174:8 *297:286 0
5 *174:8 *297:288 0
6 *174:8 *298:194 2.86209e-05
7 *1091:CLK *1091:D 5.79559e-05
*RES
1 *1088:Y *174:8 39.5536 
2 *174:8 *1091:D 40.0507 
*END

*D_NET *175 0.000638493
*CONN
*I *1094:A I *D sky130_fd_sc_hd__nand2_1
*I *1096:B1_N I *D sky130_fd_sc_hd__a21bo_1
*I *1092:Y O *D sky130_fd_sc_hd__nand3_1
*CAP
1 *1094:A 0.000138436
2 *1096:B1_N 0.000127665
3 *1092:Y 0
4 *175:4 0.000266101
5 *1094:A *1092:A 4.07999e-05
6 *1094:A *1094:B 3.06769e-05
7 *1096:B1_N *1094:B 2.94414e-05
8 *1096:B1_N *1096:A2 5.37348e-06
*RES
1 *1092:Y *175:4 23 
2 *175:4 *1096:B1_N 24.5743 
3 *175:4 *1094:A 25.7136 
*END

*D_NET *176 0.00208389
*CONN
*I *1094:B I *D sky130_fd_sc_hd__nand2_1
*I *1096:A2 I *D sky130_fd_sc_hd__a21bo_1
*I *1093:X O *D sky130_fd_sc_hd__a21o_1
*CAP
1 *1094:B 0.000307061
2 *1096:A2 0.000154242
3 *1093:X 0.000141445
4 *176:10 0.000461303
5 *176:8 0.000141445
6 *1094:B *1092:A 0.000106505
7 *176:8 *274:12 0.000351617
8 *176:8 *286:8 0.000354778
9 *1094:A *1094:B 3.06769e-05
10 *1096:B1_N *1094:B 2.94414e-05
11 *1096:B1_N *1096:A2 5.37348e-06
*RES
1 *1093:X *176:8 42.7229 
2 *176:8 *176:10 15 
3 *176:10 *1096:A2 25.5271 
4 *176:10 *1094:B 28.3029 
*END

*D_NET *177 0.00174172
*CONN
*I *1095:B I *D sky130_fd_sc_hd__xnor2_1
*I *1094:Y O *D sky130_fd_sc_hd__nand2_1
*CAP
1 *1095:B 0.000282535
2 *1094:Y 0.000310444
3 *177:8 0.000592979
4 *177:8 *274:12 0
5 *177:8 *274:14 0
6 *177:8 *289:16 0.000318493
7 *177:8 *298:10 0
8 *177:8 *298:20 0.000139647
9 *173:8 *1095:B 9.76261e-05
*RES
1 *1094:Y *177:8 46.2443 
2 *177:8 *1095:B 42.93 
*END

*D_NET *178 0.00157186
*CONN
*I *1093:B1 I *D sky130_fd_sc_hd__a21o_1
*I *1092:A I *D sky130_fd_sc_hd__nand3_1
*I *1097:Q O *D sky130_fd_sc_hd__dfrtp_1
*CAP
1 *1093:B1 0.000236279
2 *1092:A 0.000165722
3 *1097:Q 0
4 *178:6 0.000402001
5 *1092:A *289:16 0.000271401
6 *1092:A *298:20 0.000133666
7 *1093:B1 *289:16 8.85189e-05
8 *1093:B1 *291:10 7.74193e-05
9 *1093:B1 *298:20 4.95442e-05
10 *1094:A *1092:A 4.07999e-05
11 *1094:B *1092:A 0.000106505
*RES
1 *1097:Q *178:6 38 
2 *178:6 *1092:A 43.2614 
3 *178:6 *1093:B1 42.5779 
*END

*D_NET *179 0.000481784
*CONN
*I *1097:D I *D sky130_fd_sc_hd__dfrtp_1
*I *1096:X O *D sky130_fd_sc_hd__a21bo_1
*CAP
1 *1097:D 0
2 *1096:X 0.000170418
3 *179:10 0.000170418
4 *179:10 *271:8 0.000140949
5 *179:10 *286:8 0
*RES
1 *1096:X *179:10 41.0036 
2 *179:10 *1097:D 38 
*END

*D_NET *180 0.00288032
*CONN
*I *1102:A I *D sky130_fd_sc_hd__xnor2_1
*I *1103:A1 I *D sky130_fd_sc_hd__a21bo_1
*I *1098:Q O *D sky130_fd_sc_hd__dfrtp_1
*CAP
1 *1102:A 3.91846e-05
2 *1103:A1 0
3 *1098:Q 0.000267201
4 *180:22 0.000462436
5 *180:12 0.00050162
6 *180:10 0.000267201
7 *1102:A *1104:RESET_B 9.67842e-05
8 *1102:A *182:27 2.62931e-05
9 *180:10 *1098:RESET_B 5.50049e-05
10 *180:10 *1099:A 0.000137788
11 *180:10 *1100:B1 6.38845e-05
12 *180:10 *182:10 6.4393e-05
13 *180:10 *289:16 0.000189081
14 *180:10 *290:14 0.000408138
15 *180:22 *1104:RESET_B 7.96251e-05
16 *180:22 *182:27 0.000110533
17 *180:22 *186:10 0
18 *180:22 *271:8 0
19 *180:22 *286:8 0.000111148
*RES
1 *1098:Q *180:10 46.1614 
2 *180:10 *180:12 15 
3 *180:12 *180:22 38.845 
4 *180:22 *1103:A1 23 
5 *180:12 *1102:A 24.0979 
*END

*D_NET *181 0.000475003
*CONN
*I *1098:D I *D sky130_fd_sc_hd__dfrtp_1
*I *1095:Y O *D sky130_fd_sc_hd__xnor2_1
*CAP
1 *1098:D 0
2 *1095:Y 0.000165447
3 *181:10 0.000165447
4 *181:10 *271:8 0.00014411
5 *181:10 *286:8 0
*RES
1 *1095:Y *181:10 41.0036 
2 *181:10 *1098:D 38 
*END

*D_NET *182 0.00258851
*CONN
*I *1103:B1_N I *D sky130_fd_sc_hd__a21bo_1
*I *1101:A I *D sky130_fd_sc_hd__nand2_1
*I *1099:Y O *D sky130_fd_sc_hd__nand3_1
*CAP
1 *1103:B1_N 2.42293e-05
2 *1101:A 8.84996e-05
3 *1099:Y 0.000230142
4 *182:27 0.000462352
5 *182:10 0.000756764
6 *1101:A *184:8 8.62783e-05
7 *1101:A *289:16 0
8 *1101:A *297:296 8.16253e-05
9 *1101:A *298:229 4.21594e-06
10 *1103:B1_N *1100:B1 1.24376e-05
11 *1103:B1_N *1101:B 0.00010018
12 *1103:B1_N *183:6 3.22879e-05
13 *182:10 *1100:B1 4.99753e-06
14 *182:10 *184:8 5.46706e-05
15 *182:10 *290:14 9.5877e-05
16 *182:10 *297:292 4.85126e-05
17 *182:10 *297:296 5.6652e-05
18 *182:27 *274:14 6.53445e-05
19 *182:27 *290:32 0.000182223
20 *1102:A *182:27 2.62931e-05
21 *180:10 *182:10 6.4393e-05
22 *180:22 *182:27 0.000110533
*RES
1 *1099:Y *182:10 42.5364 
2 *182:10 *1101:A 40.2579 
3 *182:10 *182:27 36.09 
4 *182:27 *1103:B1_N 39.0979 
*END

*D_NET *183 0.0013237
*CONN
*I *1101:B I *D sky130_fd_sc_hd__nand2_1
*I *1103:A2 I *D sky130_fd_sc_hd__a21bo_1
*I *1100:X O *D sky130_fd_sc_hd__a21o_1
*CAP
1 *1101:B 0.000363461
2 *1103:A2 0.000136147
3 *1100:X 4.30081e-05
4 *183:6 0.000542615
5 *1101:B *1100:B1 4.2058e-05
6 *1101:B *290:32 3.70526e-05
7 *1101:B *298:204 1.14876e-05
8 *1101:B *298:214 8.06804e-06
9 *1101:B *298:221 7.33848e-06
10 *1103:B1_N *1101:B 0.00010018
11 *1103:B1_N *183:6 3.22879e-05
*RES
1 *1100:X *183:6 24.0979 
2 *183:6 *1103:A2 25.0507 
3 *183:6 *1101:B 28.9554 
*END

*D_NET *184 0.000347732
*CONN
*I *1102:B I *D sky130_fd_sc_hd__xnor2_1
*I *1101:Y O *D sky130_fd_sc_hd__nand2_1
*CAP
1 *1102:B 0
2 *1101:Y 7.11953e-05
3 *184:8 7.11953e-05
4 *184:8 *1100:B1 6.4393e-05
5 *1101:A *184:8 8.62783e-05
6 *182:10 *184:8 5.46706e-05
*RES
1 *1101:Y *184:8 39.9057 
2 *184:8 *1102:B 38 
*END

*D_NET *185 0.00155665
*CONN
*I *1099:A I *D sky130_fd_sc_hd__nand3_1
*I *1100:B1 I *D sky130_fd_sc_hd__a21o_1
*I *1104:Q O *D sky130_fd_sc_hd__dfrtp_1
*CAP
1 *1099:A 5.82459e-05
2 *1100:B1 0.000328721
3 *1104:Q 0
4 *185:6 0.000386967
5 *1099:A *289:16 0.000126343
6 *1100:B1 *289:16 0.000215801
7 *1100:B1 *290:32 5.90675e-06
8 *1100:B1 *298:204 1.32314e-05
9 *1100:B1 *298:214 9.5877e-05
10 *1100:B1 *298:221 0
11 *1101:B *1100:B1 4.2058e-05
12 *1103:B1_N *1100:B1 1.24376e-05
13 *180:10 *1099:A 0.000137788
14 *180:10 *1100:B1 6.38845e-05
15 *182:10 *1100:B1 4.99753e-06
16 *184:8 *1100:B1 6.4393e-05
*RES
1 *1104:Q *185:6 38 
2 *185:6 *1100:B1 44.8357 
3 *185:6 *1099:A 39.9057 
*END

*D_NET *186 0.000536382
*CONN
*I *1104:D I *D sky130_fd_sc_hd__dfrtp_1
*I *1103:X O *D sky130_fd_sc_hd__a21bo_1
*CAP
1 *1104:D 0
2 *1103:X 0.000196136
3 *186:10 0.000196136
4 *186:10 *271:8 0.00014411
5 *180:22 *186:10 0
*RES
1 *1103:X *186:10 41.48 
2 *186:10 *1104:D 38 
*END

*D_NET *187 0.00234587
*CONN
*I *1109:A I *D sky130_fd_sc_hd__xnor2_1
*I *1110:A1 I *D sky130_fd_sc_hd__a21bo_1
*I *1105:Q O *D sky130_fd_sc_hd__dfrtp_1
*CAP
1 *1109:A 8.47581e-05
2 *1110:A1 0
3 *1105:Q 0.000317699
4 *187:22 0.000398029
5 *187:12 0.000482787
6 *187:10 0.000317699
7 *1109:A *1109:B 5.50106e-05
8 *1109:A *1111:RESET_B 1.76557e-05
9 *187:10 *189:25 6.16531e-05
10 *187:10 *289:16 0
11 *187:10 *297:308 0
12 *187:10 *298:229 0
13 *187:10 *298:244 0.000105072
14 *187:22 *1108:B 6.99589e-05
15 *187:22 *1109:B 9.41704e-05
16 *187:22 *1110:A2 0.000309406
17 *187:22 *1111:RESET_B 2.07248e-05
18 *187:22 *274:14 0
19 *187:22 *289:37 1.12487e-05
*RES
1 *1105:Q *187:10 44.0486 
2 *187:10 *187:12 15 
3 *187:12 *187:22 37.6643 
4 *187:22 *1110:A1 23 
5 *187:12 *1109:A 24.9471 
*END

*D_NET *188 0.0015922
*CONN
*I *1105:D I *D sky130_fd_sc_hd__dfrtp_1
*I *1102:Y O *D sky130_fd_sc_hd__xnor2_1
*CAP
1 *1105:D 0.000336981
2 *1102:Y 0.000221303
3 *188:8 0.000558284
4 *1105:D *1105:RESET_B 3.08719e-06
5 *1105:D *297:302 6.70324e-05
6 *188:8 *1069:RESET_B 0
7 *188:8 *297:296 0.000323822
8 *188:8 *297:308 0
9 *188:8 *298:229 0
10 *1105:CLK *1105:D 8.16912e-05
11 *1105:CLK *188:8 0
12 *42:10 *188:8 0
*RES
1 *1102:Y *188:8 43.075 
2 *188:8 *1105:D 44.3386 
*END

*D_NET *189 0.00107412
*CONN
*I *1108:A I *D sky130_fd_sc_hd__nand2_1
*I *1110:B1_N I *D sky130_fd_sc_hd__a21bo_1
*I *1106:Y O *D sky130_fd_sc_hd__nand3_1
*CAP
1 *1108:A 0
2 *1110:B1_N 0.000196856
3 *1106:Y 0
4 *189:25 0.000185677
5 *189:4 0.000382532
6 *1110:B1_N *1106:A 7.65089e-05
7 *1110:B1_N *1110:A2 7.53384e-06
8 *189:25 *298:244 0.000163361
9 *187:10 *189:25 6.16531e-05
*RES
1 *1106:Y *189:4 23 
2 *189:4 *1110:B1_N 27.1221 
3 *189:4 *189:25 33.3557 
4 *189:25 *1108:A 23 
*END

*D_NET *190 0.00157164
*CONN
*I *1108:B I *D sky130_fd_sc_hd__nand2_1
*I *1110:A2 I *D sky130_fd_sc_hd__a21bo_1
*I *1107:X O *D sky130_fd_sc_hd__a21o_1
*CAP
1 *1108:B 6.0525e-05
2 *1110:A2 0.000207419
3 *1107:X 7.67472e-05
4 *190:8 0.000344691
5 *1108:B *1111:RESET_B 0.000136743
6 *1110:A2 *274:14 0
7 *1110:A2 *289:37 0.000219891
8 *190:8 *274:14 0
9 *190:8 *289:37 0.000138727
10 *1110:B1_N *1110:A2 7.53384e-06
11 *187:22 *1108:B 6.99589e-05
12 *187:22 *1110:A2 0.000309406
*RES
1 *1107:X *190:8 39.9057 
2 *190:8 *1110:A2 43.4893 
3 *190:8 *1108:B 39.5743 
*END

*D_NET *191 0.00034562
*CONN
*I *1109:B I *D sky130_fd_sc_hd__xnor2_1
*I *1108:Y O *D sky130_fd_sc_hd__nand2_1
*CAP
1 *1109:B 6.32399e-05
2 *1108:Y 6.32399e-05
3 *1109:B *1111:RESET_B 6.99589e-05
4 *1109:A *1109:B 5.50106e-05
5 *187:22 *1109:B 9.41704e-05
*RES
1 *1108:Y *1109:B 47.5743 
*END

*D_NET *192 0.0015655
*CONN
*I *1107:B1 I *D sky130_fd_sc_hd__a21o_1
*I *1106:A I *D sky130_fd_sc_hd__nand3_1
*I *1111:Q O *D sky130_fd_sc_hd__dfrtp_1
*CAP
1 *1107:B1 0.000124847
2 *1106:A 0.000157596
3 *1111:Q 0
4 *192:6 0.000282443
5 *1106:A *289:37 0.000273623
6 *1106:A *298:244 0.000136132
7 *1107:B1 *1107:A1 5.50049e-05
8 *1107:B1 *1107:A2 0.000182826
9 *1107:B1 *289:16 6.7177e-06
10 *1107:B1 *289:37 0.000199422
11 *1107:B1 *298:244 7.03766e-05
12 *1110:B1_N *1106:A 7.65089e-05
*RES
1 *1111:Q *192:6 38 
2 *192:6 *1106:A 42.785 
3 *192:6 *1107:B1 41.9564 
*END

*D_NET *193 0.000684812
*CONN
*I *1111:D I *D sky130_fd_sc_hd__dfrtp_1
*I *1110:X O *D sky130_fd_sc_hd__a21bo_1
*CAP
1 *1111:D 0.000196331
2 *1110:X 7.51353e-05
3 *193:8 0.000271467
4 *193:8 *271:8 0
5 *193:8 *286:8 0.000141879
*RES
1 *1110:X *193:8 39.9057 
2 *193:8 *1111:D 41.48 
*END

*D_NET *194 0.00142127
*CONN
*I *1116:A I *D sky130_fd_sc_hd__xnor2_1
*I *1117:A1 I *D sky130_fd_sc_hd__a21bo_1
*I *1112:Q O *D sky130_fd_sc_hd__dfrtp_1
*CAP
1 *1116:A 0
2 *1117:A1 0.00021562
3 *1112:Q 0.000228107
4 *194:12 0.000307253
5 *194:8 0.000319739
6 *1117:A1 *197:14 9.84794e-05
7 *194:8 *197:27 0.000163343
8 *194:8 *198:8 7.03869e-05
9 *194:8 *298:265 0
10 *194:8 *298:269 0
11 *194:12 *201:10 1.83408e-05
*RES
1 *1112:Q *194:8 42.7229 
2 *194:8 *194:12 16.5743 
3 *194:12 *1117:A1 26.9564 
4 *194:12 *1116:A 23 
*END

*D_NET *195 0.00158811
*CONN
*I *1112:D I *D sky130_fd_sc_hd__dfrtp_1
*I *1109:Y O *D sky130_fd_sc_hd__xnor2_1
*CAP
1 *1112:D 0.000273098
2 *1109:Y 0.000472023
3 *195:8 0.000745122
4 *1112:D *297:310 0
5 *195:8 *1111:RESET_B 9.78683e-05
6 *1062:CLK *1112:D 0
*RES
1 *1109:Y *195:8 45.7679 
2 *195:8 *1112:D 42.7229 
*END

*D_NET *196 0.000667131
*CONN
*I *1115:A I *D sky130_fd_sc_hd__nand2_1
*I *1117:B1_N I *D sky130_fd_sc_hd__a21bo_1
*I *1113:Y O *D sky130_fd_sc_hd__nand3_1
*CAP
1 *1115:A 0.00018377
2 *1117:B1_N 0
3 *1113:Y 0
4 *196:10 4.07717e-05
5 *196:4 0.000224542
6 *1115:A *1118:RESET_B 8.84295e-05
7 *196:10 *197:14 4.334e-05
8 *196:10 *298:269 8.62783e-05
*RES
1 *1113:Y *196:4 23 
2 *196:4 *196:10 31.2014 
3 *196:10 *1117:B1_N 23 
4 *196:4 *1115:A 25.9 
*END

*D_NET *197 0.00224238
*CONN
*I *1115:B I *D sky130_fd_sc_hd__nand2_1
*I *1117:A2 I *D sky130_fd_sc_hd__a21bo_1
*I *1114:X O *D sky130_fd_sc_hd__a21o_1
*CAP
1 *1115:B 0
2 *1117:A2 0
3 *1114:X 5.77742e-05
4 *197:27 0.000426733
5 *197:14 0.000253696
6 *197:6 0.000738203
7 *197:6 *1114:A2 8.06804e-06
8 *197:6 *1114:B1 3.7122e-06
9 *197:14 *1113:A 8.94487e-05
10 *197:14 *1114:B1 8.62783e-05
11 *197:14 *200:10 4.07021e-05
12 *197:14 *274:14 0
13 *197:14 *286:25 0.000164282
14 *197:14 *298:265 3.95159e-06
15 *197:14 *298:269 3.24733e-05
16 *197:27 *1114:A2 2.45549e-06
17 *197:27 *298:265 2.94414e-05
18 *1117:A1 *197:14 9.84794e-05
19 *194:8 *197:27 0.000163343
20 *196:10 *197:14 4.334e-05
*RES
1 *1114:X *197:6 23.6214 
2 *197:6 *197:14 36.6493 
3 *197:14 *1117:A2 23 
4 *197:6 *197:27 36.2143 
5 *197:27 *1115:B 23 
*END

*D_NET *198 0.000297428
*CONN
*I *1116:B I *D sky130_fd_sc_hd__xnor2_1
*I *1115:Y O *D sky130_fd_sc_hd__nand2_1
*CAP
1 *1116:B 0
2 *1115:Y 0.00011352
3 *198:8 0.00011352
4 *198:8 *297:327 0
5 *198:8 *298:269 0
6 *194:8 *198:8 7.03869e-05
*RES
1 *1115:Y *198:8 40.2579 
2 *198:8 *1116:B 38 
*END

*D_NET *199 0.00081945
*CONN
*I *1114:B1 I *D sky130_fd_sc_hd__a21o_1
*I *1113:A I *D sky130_fd_sc_hd__nand3_1
*I *1118:Q O *D sky130_fd_sc_hd__dfrtp_1
*CAP
1 *1114:B1 0.000131048
2 *1113:A 6.51776e-05
3 *1118:Q 0
4 *199:6 0.000196225
5 *1113:A *1118:RESET_B 5.50049e-05
6 *1113:A *274:14 0
7 *1114:B1 *1114:A2 9.84794e-05
8 *1114:B1 *274:14 0
9 *1114:B1 *286:25 4.07715e-05
10 *40:103 *1113:A 5.3304e-05
11 *197:6 *1114:B1 3.7122e-06
12 *197:14 *1113:A 8.94487e-05
13 *197:14 *1114:B1 8.62783e-05
*RES
1 *1118:Q *199:6 38 
2 *199:6 *1113:A 39.8229 
3 *199:6 *1114:B1 41.3557 
*END

*D_NET *200 0.00153235
*CONN
*I *1118:D I *D sky130_fd_sc_hd__dfrtp_1
*I *1117:X O *D sky130_fd_sc_hd__a21bo_1
*CAP
1 *1118:D 0.000458306
2 *1117:X 0.00014994
3 *200:10 0.000608246
4 *1118:D *1118:RESET_B 4.83893e-05
5 *200:10 *274:14 0
6 *40:103 *1118:D 0.000226765
7 *197:14 *200:10 4.07021e-05
*RES
1 *1117:X *200:10 40.6514 
2 *200:10 *1118:D 45.3121 
*END

*D_NET *201 0.002421
*CONN
*I *1131:A1 I *D sky130_fd_sc_hd__a21bo_1
*I *1130:A I *D sky130_fd_sc_hd__xnor2_1
*I *1119:Q O *D sky130_fd_sc_hd__dfrtp_1
*CAP
1 *1131:A1 0.000206183
2 *1130:A 0.000210211
3 *1119:Q 0.0003387
4 *201:10 0.000755095
5 *1130:A *211:17 0
6 *1130:A *297:327 0
7 *1130:A *298:752 3.70094e-05
8 *1131:A1 *1128:A1 0.000410922
9 *1131:A1 *1128:B1 8.71027e-05
10 *1131:A1 *1131:A2 0.000224605
11 *201:10 *202:8 3.11269e-05
12 *201:10 *297:327 0
13 *201:10 *298:269 0
14 *201:10 *298:752 0.000101708
15 *194:12 *201:10 1.83408e-05
*RES
1 *1119:Q *201:10 43.945 
2 *201:10 *1130:A 41.6664 
3 *201:10 *1131:A1 44.38 
*END

*D_NET *202 0.00103996
*CONN
*I *1119:D I *D sky130_fd_sc_hd__dfrtp_1
*I *1116:Y O *D sky130_fd_sc_hd__xnor2_1
*CAP
1 *1119:D 0
2 *1116:Y 0.000504415
3 *202:8 0.000504415
4 *201:10 *202:8 3.11269e-05
*RES
1 *1116:Y *202:8 31.7414 
2 *202:8 *1119:D 23 
*END

*D_NET *203 0.00172842
*CONN
*I *1124:B1_N I *D sky130_fd_sc_hd__a21bo_1
*I *1122:A I *D sky130_fd_sc_hd__nand2_1
*I *1120:Y O *D sky130_fd_sc_hd__nand3_1
*CAP
1 *1124:B1_N 0
2 *1122:A 0.000114776
3 *1120:Y 0.000250551
4 *203:10 0.000365327
5 *1122:A *204:8 6.48142e-05
6 *1122:A *280:10 0.000298248
7 *1122:A *283:10 0.000114247
8 *203:10 *1120:A 0.000187129
9 *203:10 *204:8 8.85189e-05
10 *203:10 *280:10 0.000188256
11 *203:10 *283:10 5.65491e-05
*RES
1 *1120:Y *203:10 44.09 
2 *203:10 *1122:A 42.0186 
3 *203:10 *1124:B1_N 38 
*END

*D_NET *204 0.0015168
*CONN
*I *1122:B I *D sky130_fd_sc_hd__nand2_1
*I *1124:A2 I *D sky130_fd_sc_hd__a21bo_1
*I *1121:X O *D sky130_fd_sc_hd__a21o_1
*CAP
1 *1122:B 0
2 *1124:A2 8.45658e-05
3 *1121:X 4.73604e-05
4 *204:25 9.43082e-05
5 *204:12 0.000268312
6 *204:8 0.000136798
7 *204:8 *283:10 0.000141888
8 *204:25 *280:10 0.000246748
9 *204:25 *281:10 0.000122397
10 *1122:A *204:8 6.48142e-05
11 *1124:A1 *1124:A2 9.67842e-05
12 *1124:A1 *204:12 0.000124306
13 *203:10 *204:8 8.85189e-05
*RES
1 *1121:X *204:8 39.9057 
2 *204:8 *204:12 16.5743 
3 *204:12 *1124:A2 24.5743 
4 *204:12 *204:25 33.3143 
5 *204:25 *1122:B 23 
*END

*D_NET *205 0.00105606
*CONN
*I *1123:B I *D sky130_fd_sc_hd__xnor2_1
*I *1122:Y O *D sky130_fd_sc_hd__nand2_1
*CAP
1 *1123:B 0
2 *1122:Y 0.000418342
3 *205:10 0.000418342
4 *205:10 *206:10 0.000178517
5 *205:10 *209:8 4.08641e-05
6 *205:10 *284:10 0
*RES
1 *1122:Y *205:10 43.8621 
2 *205:10 *1123:B 38 
*END

*D_NET *206 0.00192524
*CONN
*I *1120:A I *D sky130_fd_sc_hd__nand3_1
*I *1121:B1 I *D sky130_fd_sc_hd__a21o_1
*I *1125:Q O *D sky130_fd_sc_hd__dfrtp_1
*CAP
1 *1120:A 6.53111e-05
2 *1121:B1 0
3 *1125:Q 0.000417977
4 *206:12 6.53111e-05
5 *206:10 0.000417977
6 *1120:A *1121:A1 3.61695e-05
7 *1120:A *1121:A2 0.000115598
8 *1120:A *285:14 9.72057e-06
9 *206:10 *209:8 5.21127e-05
10 *206:10 *283:10 0.000379413
11 *131:10 *206:10 0
12 *203:10 *1120:A 0.000187129
13 *205:10 *206:10 0.000178517
*RES
1 *1125:Q *206:10 46.555 
2 *206:10 *206:12 15 
3 *206:12 *1121:B1 23 
4 *206:12 *1120:A 26.045 
*END

*D_NET *207 0.00100116
*CONN
*I *1125:D I *D sky130_fd_sc_hd__dfrtp_1
*I *1124:X O *D sky130_fd_sc_hd__a21bo_1
*CAP
1 *1125:D 0.000386899
2 *1124:X 9.07291e-05
3 *207:8 0.000477628
4 *207:8 *281:10 4.59027e-05
5 *207:8 *297:122 0
*RES
1 *1124:X *207:8 39.9057 
2 *207:8 *1125:D 44.3386 
*END

*D_NET *208 0.00163673
*CONN
*I *1145:A1 I *D sky130_fd_sc_hd__a21bo_1
*I *1144:A I *D sky130_fd_sc_hd__xnor2_1
*I *1126:Q O *D sky130_fd_sc_hd__dfrtp_1
*CAP
1 *1145:A1 1.80505e-05
2 *1144:A 0.000220966
3 *1126:Q 0.000484321
4 *208:10 0.000723338
5 *1144:A *223:18 5.24583e-05
6 *1144:A *226:14 9.20311e-06
7 *1144:A *283:10 0
8 *1144:A *284:20 4.40143e-05
9 *1144:A *298:460 0
10 *1145:A1 *1142:B1 5.50049e-05
11 *1145:A1 *1145:A2 2.93747e-05
12 *208:10 *283:10 0
*RES
1 *1126:Q *208:10 44.3386 
2 *208:10 *1144:A 42.0807 
3 *208:10 *1145:A1 38.6214 
*END

*D_NET *209 0.00115726
*CONN
*I *1126:D I *D sky130_fd_sc_hd__dfrtp_1
*I *1123:Y O *D sky130_fd_sc_hd__xnor2_1
*CAP
1 *1126:D 9.6425e-05
2 *1123:Y 0.000312173
3 *209:8 0.000408598
4 *1126:D *1126:RESET_B 9.06047e-05
5 *209:8 *283:10 0.000156484
6 *209:8 *284:10 0
7 *205:10 *209:8 4.08641e-05
8 *206:10 *209:8 5.21127e-05
*RES
1 *1123:Y *209:8 45.54 
2 *209:8 *1126:D 40.0507 
*END

*D_NET *210 0.00140967
*CONN
*I *1131:B1_N I *D sky130_fd_sc_hd__a21bo_1
*I *1129:A I *D sky130_fd_sc_hd__nand2_1
*I *1127:Y O *D sky130_fd_sc_hd__nand3_1
*CAP
1 *1131:B1_N 3.97708e-05
2 *1129:A 0
3 *1127:Y 0.000234278
4 *210:12 0.000168554
5 *210:6 0.000442603
6 *1131:B1_N *1128:B1 4.2573e-05
7 *210:6 *1127:A 4.34876e-05
8 *210:6 *1128:B1 0.0002263
9 *210:12 *211:17 0.000122386
10 *210:12 *298:294 8.97195e-05
*RES
1 *1127:Y *210:6 26.48 
2 *210:6 *210:12 34.0186 
3 *210:12 *1129:A 23 
4 *210:6 *1131:B1_N 23.6214 
*END

*D_NET *211 0.00108927
*CONN
*I *1129:B I *D sky130_fd_sc_hd__nand2_1
*I *1131:A2 I *D sky130_fd_sc_hd__a21bo_1
*I *1128:X O *D sky130_fd_sc_hd__a21o_1
*CAP
1 *1129:B 0
2 *1131:A2 6.81527e-05
3 *1128:X 0
4 *211:17 0.000157798
5 *211:4 0.000225951
6 *1131:A2 *1128:A1 2.32004e-05
7 *1131:A2 *1128:B1 0.000267173
8 *1130:A *211:17 0
9 *1131:A1 *1131:A2 0.000224605
10 *210:12 *211:17 0.000122386
*RES
1 *1128:X *211:4 23 
2 *211:4 *1131:A2 26.0036 
3 *211:4 *211:17 33.3143 
4 *211:17 *1129:B 23 
*END

*D_NET *212 0.000388614
*CONN
*I *1130:B I *D sky130_fd_sc_hd__xnor2_1
*I *1129:Y O *D sky130_fd_sc_hd__nand2_1
*CAP
1 *1130:B 0.000116278
2 *1129:Y 0.000116278
3 *1130:B *1132:RESET_B 0.000156058
*RES
1 *1129:Y *1130:B 49.0036 
*END

*D_NET *213 0.00189496
*CONN
*I *1128:B1 I *D sky130_fd_sc_hd__a21o_1
*I *1127:A I *D sky130_fd_sc_hd__nand3_1
*I *1132:Q O *D sky130_fd_sc_hd__dfrtp_1
*CAP
1 *1128:B1 0.000167605
2 *1127:A 3.73659e-05
3 *1132:Q 0.000242637
4 *213:12 0.000204971
5 *213:10 0.000242637
6 *1127:A *1127:C 5.50049e-05
7 *1127:A *1128:A1 2.18409e-05
8 *1128:B1 *1127:C 0
9 *1128:B1 *1128:A1 1.03955e-05
10 *213:10 *1127:C 3.47781e-05
11 *213:10 *1128:A1 6.7177e-06
12 *213:10 *1132:RESET_B 3.66903e-05
13 *213:10 *214:8 8.85189e-05
14 *213:10 *298:294 7.91596e-05
15 *1131:A1 *1128:B1 8.71027e-05
16 *1131:A2 *1128:B1 0.000267173
17 *1131:B1_N *1128:B1 4.2573e-05
18 *210:6 *1127:A 4.34876e-05
19 *210:6 *1128:B1 0.0002263
*RES
1 *1132:Q *213:10 42.3086 
2 *213:10 *213:12 15 
3 *213:12 *1127:A 24.0979 
4 *213:12 *1128:B1 28.4271 
*END

*D_NET *214 0.000860315
*CONN
*I *1132:D I *D sky130_fd_sc_hd__dfrtp_1
*I *1131:X O *D sky130_fd_sc_hd__a21bo_1
*CAP
1 *1132:D 0.000294271
2 *1131:X 8.26258e-05
3 *214:8 0.000376897
4 *214:8 *298:294 1.80023e-05
5 *213:10 *214:8 8.85189e-05
*RES
1 *1131:X *214:8 39.9057 
2 *214:8 *1132:D 43.3857 
*END

*D_NET *215 0.00212282
*CONN
*I *1138:A1 I *D sky130_fd_sc_hd__a21bo_1
*I *1137:A I *D sky130_fd_sc_hd__xnor2_1
*I *1133:Q O *D sky130_fd_sc_hd__dfrtp_1
*CAP
1 *1138:A1 2.53514e-05
2 *1137:A 0.000128145
3 *1133:Q 0.000353085
4 *215:10 0.000506581
5 *1137:A *217:8 4.6318e-06
6 *1137:A *299:10 0.000141869
7 *1138:A1 *1138:A2 0.000141954
8 *215:10 *1139:RESET_B 4.31693e-05
9 *215:10 *217:8 9.39159e-05
10 *215:10 *218:10 9.84851e-05
11 *215:10 *221:8 0
12 *215:10 *271:24 0.000443679
13 *40:39 *1138:A1 0.000141954
*RES
1 *1133:Q *215:10 46.4721 
2 *215:10 *1137:A 40.61 
3 *215:10 *1138:A1 39.5743 
*END

*D_NET *216 0.00179965
*CONN
*I *1133:D I *D sky130_fd_sc_hd__dfrtp_1
*I *1130:Y O *D sky130_fd_sc_hd__xnor2_1
*CAP
1 *1133:D 0.000401357
2 *1130:Y 0.000402403
3 *216:8 0.00080376
4 *216:8 *1132:RESET_B 0.000144494
5 *40:16 *1133:D 0
6 *41:27 *1133:D 4.76382e-05
*RES
1 *1130:Y *216:8 42.9093 
2 *216:8 *1133:D 45.1879 
*END

*D_NET *217 0.00085232
*CONN
*I *1136:A I *D sky130_fd_sc_hd__nand2_1
*I *1138:B1_N I *D sky130_fd_sc_hd__a21bo_1
*I *1134:Y O *D sky130_fd_sc_hd__nand3_1
*CAP
1 *1136:A 0
2 *1138:B1_N 1.08768e-05
3 *1134:Y 0.000206862
4 *217:10 1.08768e-05
5 *217:8 0.000206862
6 *1138:B1_N *1138:A2 5.67058e-05
7 *217:8 *1134:A 1.94685e-05
8 *217:8 *1135:B1 2.11827e-05
9 *217:8 *218:10 8.16356e-05
10 *217:8 *221:8 0
11 *217:8 *271:24 7.28526e-05
12 *217:8 *298:294 1.14452e-05
13 *1137:A *217:8 4.6318e-06
14 *40:39 *1138:B1_N 5.50049e-05
15 *215:10 *217:8 9.39159e-05
*RES
1 *1134:Y *217:8 43.075 
2 *217:8 *217:10 15 
3 *217:10 *1138:B1_N 23.6214 
4 *217:10 *1136:A 23 
*END

*D_NET *218 0.00139017
*CONN
*I *1136:B I *D sky130_fd_sc_hd__nand2_1
*I *1138:A2 I *D sky130_fd_sc_hd__a21bo_1
*I *1135:X O *D sky130_fd_sc_hd__a21o_1
*CAP
1 *1136:B 0
2 *1138:A2 0.000161387
3 *1135:X 0.000186191
4 *218:12 0.000161387
5 *218:10 0.000186191
6 *1138:A2 *1224:A 0.000226295
7 *1138:A1 *1138:A2 0.000141954
8 *1138:B1_N *1138:A2 5.67058e-05
9 *40:39 *1138:A2 8.99384e-05
10 *215:10 *218:10 9.84851e-05
11 *217:8 *218:10 8.16356e-05
*RES
1 *1135:X *218:10 41.3557 
2 *218:10 *218:12 15 
3 *218:12 *1138:A2 27.9507 
4 *218:12 *1136:B 23 
*END

*D_NET *219 0.000557193
*CONN
*I *1137:B I *D sky130_fd_sc_hd__xnor2_1
*I *1136:Y O *D sky130_fd_sc_hd__nand2_1
*CAP
1 *1137:B 0.000103177
2 *1136:Y 9.16982e-05
3 *219:8 0.000194875
4 *219:8 *299:10 0.000167443
*RES
1 *1136:Y *219:8 40.2579 
2 *219:8 *1137:B 39.5743 
*END

*D_NET *220 0.000935941
*CONN
*I *1134:A I *D sky130_fd_sc_hd__nand3_1
*I *1135:B1 I *D sky130_fd_sc_hd__a21o_1
*I *1139:Q O *D sky130_fd_sc_hd__dfrtp_1
*CAP
1 *1134:A 0.000178422
2 *1135:B1 6.28237e-05
3 *1139:Q 0
4 *220:6 0.000241245
5 *1134:A *1134:C 5.50049e-05
6 *1134:A *1135:A2 0
7 *1134:A *298:294 2.71291e-05
8 *1134:A *298:309 4.5051e-05
9 *1135:B1 *1135:A2 0
10 *1135:B1 *1139:RESET_B 0.00014196
11 *1135:B1 *271:24 0.000143655
12 *217:8 *1134:A 1.94685e-05
13 *217:8 *1135:B1 2.11827e-05
*RES
1 *1139:Q *220:6 38 
2 *220:6 *1135:B1 40.4236 
3 *220:6 *1134:A 41.48 
*END

*D_NET *221 0.000504547
*CONN
*I *1139:D I *D sky130_fd_sc_hd__dfrtp_1
*I *1138:X O *D sky130_fd_sc_hd__a21bo_1
*CAP
1 *1139:D 0.000145038
2 *1138:X 0.000107236
3 *221:8 0.000252274
4 *40:39 *221:8 0
5 *215:10 *221:8 0
6 *217:8 *221:8 0
*RES
1 *1138:X *221:8 39.9057 
2 *221:8 *1139:D 40.5271 
*END

*D_NET *222 0.00276886
*CONN
*I *1140:D I *D sky130_fd_sc_hd__dfrtp_1
*I *1137:Y O *D sky130_fd_sc_hd__xnor2_1
*CAP
1 *1140:D 0.000249964
2 *1137:Y 0.000724171
3 *222:8 0.000974135
4 *1140:D *1140:RESET_B 0.000376424
5 *222:8 *297:357 8.06804e-06
6 *1140:CLK *1140:D 0.000410704
7 *40:68 *222:8 1.92253e-05
8 *123:6 *222:8 6.17437e-06
*RES
1 *1137:Y *222:8 47.1971 
2 *222:8 *1140:D 45.1257 
*END

*D_NET *223 0.00112376
*CONN
*I *1143:A I *D sky130_fd_sc_hd__nand2_1
*I *1145:B1_N I *D sky130_fd_sc_hd__a21bo_1
*I *1141:Y O *D sky130_fd_sc_hd__nand3_1
*CAP
1 *1143:A 0
2 *1145:B1_N 0
3 *1141:Y 0.000216205
4 *223:18 0.000144871
5 *223:10 0.000361076
6 *223:10 *1141:B 3.22879e-05
7 *223:10 *1144:B 7.42621e-05
8 *223:10 *298:460 3.58358e-05
9 *223:18 *1144:B 5.50106e-05
10 *223:18 *1147:D 1.62015e-05
11 *223:18 *298:460 0.000135557
12 *1144:A *223:18 5.24583e-05
*RES
1 *1141:Y *223:10 27.9507 
2 *223:10 *223:18 33.5836 
3 *223:18 *1145:B1_N 23 
4 *223:10 *1143:A 23 
*END

*D_NET *224 0.00149977
*CONN
*I *1143:B I *D sky130_fd_sc_hd__nand2_1
*I *1145:A2 I *D sky130_fd_sc_hd__a21bo_1
*I *1142:X O *D sky130_fd_sc_hd__a21o_1
*CAP
1 *1143:B 0
2 *1145:A2 0.00016371
3 *1142:X 5.3159e-05
4 *224:23 0.000149215
5 *224:6 0.000366084
6 *1145:A2 *1142:A1 2.93747e-05
7 *1145:A2 *1142:B1 0.000141265
8 *1145:A2 *284:20 0.000351513
9 *224:6 *1142:B1 3.7122e-06
10 *224:23 *1147:D 6.25829e-05
11 *224:23 *229:8 6.17437e-06
12 *224:23 *284:20 3.47781e-05
13 *224:23 *298:460 2.01531e-05
14 *1145:A1 *1145:A2 2.93747e-05
15 *33:11 *224:23 6.38947e-05
16 *33:15 *224:6 2.47815e-05
*RES
1 *1142:X *224:6 24.0979 
2 *224:6 *1145:A2 27.93 
3 *224:6 *224:23 33.2314 
4 *224:23 *1143:B 23 
*END

*D_NET *225 0.000411759
*CONN
*I *1144:B I *D sky130_fd_sc_hd__xnor2_1
*I *1143:Y O *D sky130_fd_sc_hd__nand2_1
*CAP
1 *1144:B 5.56465e-05
2 *1143:Y 5.56465e-05
3 *1144:B *229:8 9.84851e-05
4 *1144:B *298:460 7.27085e-05
5 *223:10 *1144:B 7.42621e-05
6 *223:18 *1144:B 5.50106e-05
*RES
1 *1143:Y *1144:B 48.5271 
*END

*D_NET *226 0.00190782
*CONN
*I *1142:B1 I *D sky130_fd_sc_hd__a21o_1
*I *1141:A I *D sky130_fd_sc_hd__nand3_1
*I *1146:Q O *D sky130_fd_sc_hd__dfrtp_1
*CAP
1 *1142:B1 0.000223263
2 *1141:A 0
3 *1146:Q 7.87774e-05
4 *226:14 0.000103155
5 *226:6 0.000405195
6 *1142:B1 *1142:A1 5.50049e-05
7 *1142:B1 *227:6 1.32314e-05
8 *1142:B1 *284:20 2.28331e-05
9 *226:6 *227:6 0.000141052
10 *226:14 *283:10 8.41012e-05
11 *226:14 *284:20 0.000138727
12 *1144:A *226:14 9.20311e-06
13 *1145:A1 *1142:B1 5.50049e-05
14 *1145:A2 *1142:B1 0.000141265
15 *33:15 *1142:B1 0.000433299
16 *224:6 *1142:B1 3.7122e-06
*RES
1 *1146:Q *226:6 24.5743 
2 *226:6 *226:14 32.755 
3 *226:14 *1141:A 23 
4 *226:6 *1142:B1 30.5193 
*END

*D_NET *227 0.00128066
*CONN
*I *1146:D I *D sky130_fd_sc_hd__dfrtp_1
*I *1145:X O *D sky130_fd_sc_hd__a21bo_1
*CAP
1 *1146:D 0
2 *1145:X 0.000394125
3 *227:6 0.000394125
4 *227:6 *1146:RESET_B 5.3275e-05
5 *1142:B1 *227:6 1.32314e-05
6 *1146:CLK *227:6 3.22879e-05
7 *33:15 *227:6 0.00025256
8 *226:6 *227:6 0.000141052
*RES
1 *1145:X *227:6 32.1971 
2 *227:6 *1146:D 23 
*END

*D_NET *228 0.00202018
*CONN
*I *1151:A I *D sky130_fd_sc_hd__xnor2_1
*I *1152:A1 I *D sky130_fd_sc_hd__a21bo_1
*I *1147:Q O *D sky130_fd_sc_hd__dfrtp_1
*CAP
1 *1151:A 0
2 *1152:A1 0.000219196
3 *1147:Q 0
4 *228:23 0.000513356
5 *228:4 0.000732552
6 *1152:A1 *1150:A 5.67058e-05
7 *1152:A1 *1152:A2 8.2832e-05
8 *1152:A1 *230:12 5.50106e-05
9 *1152:A1 *232:10 3.12477e-05
10 *1152:A1 *297:76 0.000312348
11 *228:23 *1147:RESET_B 0
12 *228:23 *1150:A 0
13 *228:23 *1152:A2 0
14 *228:23 *297:76 1.69296e-05
*RES
1 *1147:Q *228:4 23 
2 *228:4 *1152:A1 28.8829 
3 *228:4 *228:23 37.4157 
4 *228:23 *1151:A 23 
*END

*D_NET *229 0.0015816
*CONN
*I *1147:D I *D sky130_fd_sc_hd__dfrtp_1
*I *1144:Y O *D sky130_fd_sc_hd__xnor2_1
*CAP
1 *1147:D 0.000603189
2 *1144:Y 6.83833e-05
3 *229:8 0.000671572
4 *229:8 *298:460 5.50106e-05
5 *1144:B *229:8 9.84851e-05
6 *33:11 *1147:D 0
7 *223:18 *1147:D 1.62015e-05
8 *224:23 *1147:D 6.25829e-05
9 *224:23 *229:8 6.17437e-06
*RES
1 *1144:Y *229:8 39.5743 
2 *229:8 *1147:D 49.7657 
*END

*D_NET *230 0.00108798
*CONN
*I *1150:A I *D sky130_fd_sc_hd__nand2_1
*I *1152:B1_N I *D sky130_fd_sc_hd__a21bo_1
*I *1148:Y O *D sky130_fd_sc_hd__nand3_1
*CAP
1 *1150:A 2.86304e-05
2 *1152:B1_N 0
3 *1148:Y 0.000149003
4 *230:12 4.11268e-05
5 *230:8 0.0001615
6 *1150:A *1152:A2 3.06608e-05
7 *230:8 *1148:C 8.62876e-05
8 *230:8 *231:10 0
9 *230:8 *297:76 8.62783e-05
10 *230:8 *297:88 8.24662e-05
11 *230:8 *297:97 0.000129504
12 *230:8 *298:429 0.000148519
13 *230:12 *1152:A2 3.22879e-05
14 *1152:A1 *1150:A 5.67058e-05
15 *1152:A1 *230:12 5.50106e-05
16 *228:23 *1150:A 0
*RES
1 *1148:Y *230:8 42.7229 
2 *230:8 *230:12 15.6214 
3 *230:12 *1152:B1_N 23 
4 *230:12 *1150:A 24.1186 
*END

*D_NET *231 0.00121659
*CONN
*I *1150:B I *D sky130_fd_sc_hd__nand2_1
*I *1152:A2 I *D sky130_fd_sc_hd__a21bo_1
*I *1149:X O *D sky130_fd_sc_hd__a21o_1
*CAP
1 *1150:B 0
2 *1152:A2 0.000221337
3 *1149:X 0.000208206
4 *231:12 0.000221337
5 *231:10 0.000208206
6 *1152:A2 *232:10 5.67058e-05
7 *231:10 *281:10 7.81073e-05
8 *231:10 *297:76 2.29192e-05
9 *231:10 *297:88 2.76611e-06
10 *231:10 *298:429 0
11 *231:10 *298:439 5.12254e-05
12 *1150:A *1152:A2 3.06608e-05
13 *1152:A1 *1152:A2 8.2832e-05
14 *228:23 *1152:A2 0
15 *230:8 *231:10 0
16 *230:12 *1152:A2 3.22879e-05
*RES
1 *1149:X *231:10 41.3557 
2 *231:10 *231:12 15 
3 *231:12 *1152:A2 27.9507 
4 *231:12 *1150:B 23 
*END

*D_NET *232 0.00133385
*CONN
*I *1151:B I *D sky130_fd_sc_hd__xnor2_1
*I *1150:Y O *D sky130_fd_sc_hd__nand2_1
*CAP
1 *1151:B 0.000177866
2 *1150:Y 0.00022537
3 *232:10 0.000403236
4 *232:10 *280:10 7.91596e-05
5 *232:10 *281:10 0.000166513
6 *1152:A1 *232:10 3.12477e-05
7 *1152:A2 *232:10 5.67058e-05
8 *45:92 *1151:B 0.000193749
*RES
1 *1150:Y *232:10 42.3086 
2 *232:10 *1151:B 41.9564 
*END

*D_NET *233 0.000950816
*CONN
*I *1148:A I *D sky130_fd_sc_hd__nand3_1
*I *1149:B1 I *D sky130_fd_sc_hd__a21o_1
*I *1153:Q O *D sky130_fd_sc_hd__dfrtp_1
*CAP
1 *1148:A 0
2 *1149:B1 9.43301e-05
3 *1153:Q 0
4 *233:21 0.000152918
5 *233:4 0.000247248
6 *1149:B1 *298:439 0.000175649
7 *233:21 *1148:B 0.000141954
8 *233:21 *281:10 0.000138718
9 *233:21 *297:97 0
*RES
1 *1153:Q *233:4 23 
2 *233:4 *1149:B1 25.4236 
3 *233:4 *233:21 33.48 
4 *233:21 *1148:A 23 
*END

*D_NET *234 0.000591558
*CONN
*I *1153:D I *D sky130_fd_sc_hd__dfrtp_1
*I *1152:X O *D sky130_fd_sc_hd__a21bo_1
*CAP
1 *1153:D 0.000110299
2 *1152:X 0.000102328
3 *234:8 0.000212626
4 *1153:D *1182:RESET_B 0.000123934
5 *234:8 *279:10 4.23714e-05
6 *234:8 *298:429 0
*RES
1 *1152:X *234:8 39.9057 
2 *234:8 *1153:D 40.5271 
*END

*D_NET *235 0.00138809
*CONN
*I *1159:A1 I *D sky130_fd_sc_hd__a21bo_1
*I *1158:A I *D sky130_fd_sc_hd__xnor2_1
*I *1154:Q O *D sky130_fd_sc_hd__dfrtp_1
*CAP
1 *1159:A1 7.07551e-05
2 *1158:A 0.000247736
3 *1154:Q 6.54572e-05
4 *235:8 0.000383948
5 *1158:A *238:10 5.37348e-06
6 *1158:A *243:10 7.53384e-06
7 *1158:A *280:14 0.000250839
8 *1159:A1 *297:56 0.000139346
9 *235:8 *237:21 8.85189e-05
10 *235:8 *280:14 0.000128583
11 *235:8 *297:56 0
*RES
1 *1154:Q *235:8 39.9057 
2 *235:8 *1158:A 43.365 
3 *235:8 *1159:A1 39.5743 
*END

*D_NET *236 0.000532757
*CONN
*I *1154:D I *D sky130_fd_sc_hd__dfrtp_1
*I *1151:Y O *D sky130_fd_sc_hd__xnor2_1
*CAP
1 *1154:D 0
2 *1151:Y 0.000202095
3 *236:10 0.000202095
4 *1154:CLK *236:10 5.61311e-05
5 *45:92 *236:10 7.24365e-05
*RES
1 *1151:Y *236:10 42.3086 
2 *236:10 *1154:D 38 
*END

*D_NET *237 0.00105904
*CONN
*I *1159:B1_N I *D sky130_fd_sc_hd__a21bo_1
*I *1157:A I *D sky130_fd_sc_hd__nand2_1
*I *1155:Y O *D sky130_fd_sc_hd__nand3_1
*CAP
1 *1159:B1_N 0
2 *1157:A 0
3 *1155:Y 0.000119843
4 *237:21 0.000224772
5 *237:8 0.000344615
6 *237:8 *1155:A 2.61608e-05
7 *237:8 *281:14 4.02485e-05
8 *237:21 *280:14 2.70366e-05
9 *237:21 *281:14 0.000141954
10 *237:21 *297:56 4.58924e-05
11 *235:8 *237:21 8.85189e-05
*RES
1 *1155:Y *237:8 25.4236 
2 *237:8 *1157:A 23 
3 *237:8 *237:21 34.9093 
4 *237:21 *1159:B1_N 23 
*END

*D_NET *238 0.00146711
*CONN
*I *1159:A2 I *D sky130_fd_sc_hd__a21bo_1
*I *1157:B I *D sky130_fd_sc_hd__nand2_1
*I *1156:X O *D sky130_fd_sc_hd__a21o_1
*CAP
1 *1159:A2 0
2 *1157:B 0
3 *1156:X 0.000203854
4 *238:20 0.000172657
5 *238:12 0.000172657
6 *238:10 0.000203854
7 *238:10 *239:8 0.000167443
8 *238:10 *280:14 5.36457e-05
9 *238:20 *1160:RESET_B 5.3304e-05
10 *238:20 *239:8 3.72639e-05
11 *238:20 *241:6 5.3304e-05
12 *238:20 *280:14 0
13 *238:20 *281:10 0
14 *238:20 *297:44 6.16531e-05
15 *238:20 *297:56 8.17328e-05
16 *1158:A *238:10 5.37348e-06
17 *45:10 *238:20 0.000138727
18 *45:16 *238:20 6.16439e-05
*RES
1 *1156:X *238:10 41.8321 
2 *238:10 *238:12 15 
3 *238:12 *238:20 34.1843 
4 *238:20 *1157:B 23 
5 *238:12 *1159:A2 23 
*END

*D_NET *239 0.00075465
*CONN
*I *1158:B I *D sky130_fd_sc_hd__xnor2_1
*I *1157:Y O *D sky130_fd_sc_hd__nand2_1
*CAP
1 *1158:B 0
2 *1157:Y 0.000184396
3 *239:8 0.000184396
4 *239:8 *280:14 0
5 *239:8 *297:44 0.000181151
6 *238:10 *239:8 0.000167443
7 *238:20 *239:8 3.72639e-05
*RES
1 *1157:Y *239:8 42.7229 
2 *239:8 *1158:B 38 
*END

*D_NET *240 0.00164187
*CONN
*I *1155:A I *D sky130_fd_sc_hd__nand3_1
*I *1156:B1 I *D sky130_fd_sc_hd__a21o_1
*I *1160:Q O *D sky130_fd_sc_hd__dfrtp_1
*CAP
1 *1155:A 0.000179168
2 *1156:B1 5.04181e-05
3 *1160:Q 9.60605e-05
4 *240:8 0.000325646
5 *1155:A *281:14 2.64616e-05
6 *1155:A *281:24 0.000238316
7 *1155:A *298:403 7.75329e-06
8 *1155:A *298:429 1.19796e-05
9 *1156:B1 *281:24 0.000169683
10 *240:8 *241:6 4.67488e-05
11 *45:10 *1155:A 0.000154147
12 *45:16 *1155:A 0.000139657
13 *45:16 *1156:B1 0.000169665
14 *237:8 *1155:A 2.61608e-05
*RES
1 *1160:Q *240:8 39.0979 
2 *240:8 *1156:B1 40.2579 
3 *240:8 *1155:A 43.1371 
*END

*D_NET *241 0.00116059
*CONN
*I *1160:D I *D sky130_fd_sc_hd__dfrtp_1
*I *1159:X O *D sky130_fd_sc_hd__a21bo_1
*CAP
1 *1160:D 0
2 *1159:X 0.000387458
3 *241:6 0.000387458
4 *241:6 *1160:RESET_B 5.77745e-05
5 *1160:CLK *241:6 3.22879e-05
6 *45:55 *241:6 0.00019556
7 *238:20 *241:6 5.3304e-05
8 *240:8 *241:6 4.67488e-05
*RES
1 *1159:X *241:6 31.2443 
2 *241:6 *1160:D 23 
*END

*D_NET *242 0.00372556
*CONN
*I *1165:A I *D sky130_fd_sc_hd__xnor2_1
*I *1166:A1 I *D sky130_fd_sc_hd__a21bo_1
*I *1161:Q O *D sky130_fd_sc_hd__dfrtp_1
*CAP
1 *1165:A 0
2 *1166:A1 0
3 *1161:Q 0.000688675
4 *242:26 0.000374614
5 *242:12 0.000424593
6 *242:8 0.000738654
7 *242:8 *1161:RESET_B 0.000437057
8 *242:12 *1162:B 0.000139647
9 *242:12 *246:8 0.000141888
10 *242:26 *1167:RESET_B 0.000170989
11 *242:26 *244:12 6.16531e-05
12 *242:26 *245:16 0.000200139
13 *242:26 *249:16 3.53115e-05
14 *242:26 *298:524 0.000220541
15 *1167:CLK *242:26 9.17998e-05
*RES
1 *1161:Q *242:8 48.15 
2 *242:8 *242:12 16.9057 
3 *242:12 *242:26 38.7829 
4 *242:26 *1166:A1 23 
5 *242:12 *1165:A 23 
*END

*D_NET *243 0.000783876
*CONN
*I *1161:D I *D sky130_fd_sc_hd__dfrtp_1
*I *1158:Y O *D sky130_fd_sc_hd__xnor2_1
*CAP
1 *1161:D 0
2 *1158:Y 0.000388171
3 *243:10 0.000388171
4 *243:10 *280:14 0
5 *1158:A *243:10 7.53384e-06
*RES
1 *1158:Y *243:10 44.2971 
2 *243:10 *1161:D 38 
*END

*D_NET *244 0.00182583
*CONN
*I *1164:A I *D sky130_fd_sc_hd__nand2_1
*I *1166:B1_N I *D sky130_fd_sc_hd__a21bo_1
*I *1162:Y O *D sky130_fd_sc_hd__nand3_1
*CAP
1 *1164:A 0
2 *1166:B1_N 0
3 *1162:Y 0
4 *244:27 0.000289098
5 *244:12 0.00015373
6 *244:4 0.000442828
7 *244:12 *1162:A 1.37246e-05
8 *244:12 *1162:B 1.41077e-05
9 *244:12 *245:16 8.80821e-05
10 *244:12 *298:524 9.24795e-06
11 *244:27 *1161:RESET_B 5.50106e-05
12 *244:27 *1162:B 5.23457e-05
13 *244:27 *246:8 0.000166522
14 *244:27 *249:16 1.01436e-05
15 *244:27 *297:10 0.000164282
16 *244:27 *297:20 0.000138727
17 *244:27 *297:44 6.16439e-05
18 *1161:CLK *244:27 5.50106e-05
19 *1168:CLK *244:12 6.17437e-06
20 *1168:CLK *244:27 4.34973e-05
21 *242:26 *244:12 6.16531e-05
*RES
1 *1162:Y *244:4 23 
2 *244:4 *244:12 32.4236 
3 *244:12 *1166:B1_N 23 
4 *244:4 *244:27 36.4421 
5 *244:27 *1164:A 23 
*END

*D_NET *245 0.00178338
*CONN
*I *1164:B I *D sky130_fd_sc_hd__nand2_1
*I *1166:A2 I *D sky130_fd_sc_hd__a21bo_1
*I *1163:X O *D sky130_fd_sc_hd__a21o_1
*CAP
1 *1164:B 6.0127e-05
2 *1166:A2 0
3 *1163:X 0
4 *245:16 0.000407842
5 *245:4 0.000467969
6 *1164:B *1161:RESET_B 5.15762e-05
7 *1164:B *1163:A1 4.00259e-06
8 *245:16 *1162:A 0.000240426
9 *245:16 *1163:A1 5.61255e-06
10 *245:16 *1163:B1 0.000101295
11 *245:16 *249:16 1.32939e-05
12 *245:16 *298:524 8.9712e-05
13 *1161:CLK *1164:B 5.3304e-05
14 *242:26 *245:16 0.000200139
15 *244:12 *245:16 8.80821e-05
*RES
1 *1163:X *245:4 23 
2 *245:4 *245:16 38.9693 
3 *245:16 *1166:A2 23 
4 *245:4 *1164:B 24.4707 
*END

*D_NET *246 0.000437652
*CONN
*I *1165:B I *D sky130_fd_sc_hd__xnor2_1
*I *1164:Y O *D sky130_fd_sc_hd__nand2_1
*CAP
1 *1165:B 0
2 *1164:Y 5.77583e-05
3 *246:8 5.77583e-05
4 *246:8 *1162:B 1.37246e-05
5 *242:12 *246:8 0.000141888
6 *244:27 *246:8 0.000166522
*RES
1 *1164:Y *246:8 40.2579 
2 *246:8 *1165:B 38 
*END

*D_NET *247 0.00156768
*CONN
*I *1163:B1 I *D sky130_fd_sc_hd__a21o_1
*I *1162:A I *D sky130_fd_sc_hd__nand3_1
*I *1167:Q O *D sky130_fd_sc_hd__dfrtp_1
*CAP
1 *1163:B1 9.84255e-05
2 *1162:A 0.000165071
3 *1167:Q 9.60605e-05
4 *247:8 0.000359557
5 *1162:A *297:10 1.22906e-05
6 *1162:A *298:524 0
7 *1163:B1 *1163:A1 2.93747e-05
8 *1163:B1 *298:524 0
9 *247:8 *1167:RESET_B 4.67488e-05
10 *1168:CLK *1162:A 0.000138708
11 *45:18 *1162:A 0.000129513
12 *45:18 *1163:B1 0.000136486
13 *244:12 *1162:A 1.37246e-05
14 *245:16 *1162:A 0.000240426
15 *245:16 *1163:B1 0.000101295
*RES
1 *1167:Q *247:8 39.0979 
2 *247:8 *1162:A 42.64 
3 *247:8 *1163:B1 40.5271 
*END

*D_NET *248 0.000595095
*CONN
*I *1167:D I *D sky130_fd_sc_hd__dfrtp_1
*I *1166:X O *D sky130_fd_sc_hd__a21bo_1
*CAP
1 *1167:D 5.91635e-05
2 *1166:X 0.000120914
3 *248:8 0.000180077
4 *1167:D *279:16 0.00010655
5 *248:8 *298:524 0
6 *1167:CLK *1167:D 0.000128391
*RES
1 *1166:X *248:8 39.9057 
2 *248:8 *1167:D 40.5271 
*END

*D_NET *249 0.00576262
*CONN
*I *1172:A I *D sky130_fd_sc_hd__xnor2_1
*I *1173:A1 I *D sky130_fd_sc_hd__a21bo_1
*I *1168:Q O *D sky130_fd_sc_hd__dfrtp_1
*CAP
1 *1172:A 0.000203348
2 *1173:A1 0
3 *1168:Q 0.000750753
4 *249:18 0.000356044
5 *249:16 0.00149878
6 *249:8 0.00209684
7 *1172:A *1174:RESET_B 7.30978e-05
8 *249:8 *1168:RESET_B 0.000104328
9 *249:16 *1162:B 5.75719e-05
10 *249:16 *1168:RESET_B 7.74658e-05
11 *249:16 *297:8 1.12487e-05
12 *249:16 *297:10 3.82564e-05
13 *249:16 *298:524 0.000272377
14 *249:18 *1174:RESET_B 8.93326e-05
15 *249:18 *255:10 0
16 *1168:CLK *249:8 7.44354e-05
17 *242:26 *249:16 3.53115e-05
18 *244:27 *249:16 1.01436e-05
19 *245:16 *249:16 1.32939e-05
*RES
1 *1168:Q *249:8 48.6264 
2 *249:8 *249:16 49.6786 
3 *249:16 *249:18 3.66643 
4 *249:18 *1173:A1 38 
5 *249:18 *1172:A 42.06 
*END

*D_NET *250 0.000422117
*CONN
*I *1168:D I *D sky130_fd_sc_hd__dfrtp_1
*I *1165:Y O *D sky130_fd_sc_hd__xnor2_1
*CAP
1 *1168:D 0
2 *1165:Y 0.000211058
3 *250:10 0.000211058
4 *250:10 *1162:B 0
*RES
1 *1165:Y *250:10 41.0036 
2 *250:10 *1168:D 38 
*END

*D_NET *251 0.00106982
*CONN
*I *1171:A I *D sky130_fd_sc_hd__nand2_1
*I *1173:B1_N I *D sky130_fd_sc_hd__a21bo_1
*I *1169:Y O *D sky130_fd_sc_hd__nand3_1
*CAP
1 *1171:A 0
2 *1173:B1_N 0.000103807
3 *1169:Y 0.000129831
4 *251:21 0.000157825
5 *251:6 0.000391463
6 *1173:B1_N *1170:A2 0
7 *1173:B1_N *1173:A2 3.22879e-05
8 *1173:B1_N *252:6 1.32939e-05
9 *251:6 *1169:A 4.94192e-05
10 *251:6 *1170:A2 5.67058e-05
11 *251:21 *1174:RESET_B 0
12 *251:21 *252:21 7.03766e-05
13 *251:21 *254:8 6.48142e-05
14 *251:21 *298:496 0
*RES
1 *1169:Y *251:6 25.5271 
2 *251:6 *1173:B1_N 25.0714 
3 *251:6 *251:21 33.3143 
4 *251:21 *1171:A 23 
*END

*D_NET *252 0.000835743
*CONN
*I *1171:B I *D sky130_fd_sc_hd__nand2_1
*I *1173:A2 I *D sky130_fd_sc_hd__a21bo_1
*I *1170:X O *D sky130_fd_sc_hd__a21o_1
*CAP
1 *1171:B 0
2 *1173:A2 0.000209592
3 *1170:X 4.04453e-05
4 *252:21 6.65675e-05
5 *252:6 0.000316605
6 *1173:A2 *1169:A 1.37232e-05
7 *252:21 *1174:RESET_B 7.28526e-05
8 *1173:B1_N *1173:A2 3.22879e-05
9 *1173:B1_N *252:6 1.32939e-05
10 *251:21 *252:21 7.03766e-05
*RES
1 *1170:X *252:6 23.6214 
2 *252:6 *1173:A2 26.8529 
3 *252:6 *252:21 31.9057 
4 *252:21 *1171:B 23 
*END

*D_NET *253 0.00020165
*CONN
*I *1172:B I *D sky130_fd_sc_hd__xnor2_1
*I *1171:Y O *D sky130_fd_sc_hd__nand2_1
*CAP
1 *1172:B 0.000100825
2 *1171:Y 0.000100825
*RES
1 *1171:Y *1172:B 47.5743 
*END

*D_NET *254 0.000712047
*CONN
*I *1169:A I *D sky130_fd_sc_hd__nand3_1
*I *1170:B1 I *D sky130_fd_sc_hd__a21o_1
*I *1174:Q O *D sky130_fd_sc_hd__dfrtp_1
*CAP
1 *1169:A 8.78172e-05
2 *1170:B1 0
3 *1174:Q 0.000122576
4 *254:10 8.78172e-05
5 *254:8 0.000122576
6 *1169:A *1170:A1 0.000111596
7 *1169:A *1170:A2 5.17085e-05
8 *254:8 *1174:RESET_B 0
9 *254:8 *298:496 0
10 *1173:A2 *1169:A 1.37232e-05
11 *251:6 *1169:A 4.94192e-05
12 *251:21 *254:8 6.48142e-05
*RES
1 *1174:Q *254:8 40.2579 
2 *254:8 *254:10 15 
3 *254:10 *1170:B1 23 
4 *254:10 *1169:A 26.045 
*END

*D_NET *255 0.000614429
*CONN
*I *1174:D I *D sky130_fd_sc_hd__dfrtp_1
*I *1173:X O *D sky130_fd_sc_hd__a21bo_1
*CAP
1 *1174:D 0
2 *1173:X 0.000283026
3 *255:10 0.000283026
4 *1174:CLK *255:10 4.83778e-05
5 *249:18 *255:10 0
*RES
1 *1173:X *255:10 42.4329 
2 *255:10 *1174:D 38 
*END

*D_NET *256 0.0035281
*CONN
*I *1179:A I *D sky130_fd_sc_hd__xnor2_1
*I *1180:A1 I *D sky130_fd_sc_hd__a21bo_1
*I *1175:Q O *D sky130_fd_sc_hd__dfrtp_1
*CAP
1 *1179:A 0
2 *1180:A1 0
3 *1175:Q 0.000107268
4 *256:37 0.000428665
5 *256:20 0.00030021
6 *256:10 0.000836143
7 *256:10 *261:12 1.24376e-05
8 *256:20 *1174:RESET_B 0.000215791
9 *256:20 *1175:RESET_B 1.59094e-05
10 *256:20 *259:14 9.84794e-05
11 *256:20 *262:10 0
12 *256:20 *297:425 2.55642e-05
13 *256:37 *1014:RESET_B 0.000316686
14 *256:37 *1178:B 0.0002129
15 *256:37 *1179:B 0.000185428
16 *256:37 *259:14 0.000441326
17 *256:37 *260:8 0.000141879
18 *256:37 *297:425 0.000189412
19 *953:A *256:37 0
20 *1182:CLK *256:37 0
21 *39:51 *256:37 0
22 *44:85 *256:37 0
*RES
1 *1175:Q *256:10 24.74 
2 *256:10 *256:20 35.9864 
3 *256:20 *1180:A1 23 
4 *256:10 *256:37 44.355 
5 *256:37 *1179:A 23 
*END

*D_NET *257 0.00103094
*CONN
*I *1175:D I *D sky130_fd_sc_hd__dfrtp_1
*I *1172:Y O *D sky130_fd_sc_hd__xnor2_1
*CAP
1 *1175:D 0
2 *1172:Y 0.000422846
3 *257:10 0.000422846
4 *257:10 *262:10 3.21327e-05
5 *44:16 *257:10 6.79841e-05
6 *44:18 *257:10 8.51329e-05
*RES
1 *1172:Y *257:10 46.2029 
2 *257:10 *1175:D 38 
*END

*D_NET *258 0.00250831
*CONN
*I *1178:A I *D sky130_fd_sc_hd__nand2_1
*I *1180:B1_N I *D sky130_fd_sc_hd__a21bo_1
*I *1176:Y O *D sky130_fd_sc_hd__nand3_1
*CAP
1 *1178:A 0.000408799
2 *1180:B1_N 0.00018478
3 *1176:Y 0
4 *258:6 0.000593578
5 *1178:A *1178:B 0.000152434
6 *1178:A *259:14 6.52293e-05
7 *1178:A *261:12 0.000382574
8 *1178:A *278:22 0.00041353
9 *1178:A *298:390 1.44546e-05
10 *1180:B1_N *259:14 4.08641e-05
11 *1180:B1_N *298:384 0.000184527
12 *1180:B1_N *298:390 2.5415e-05
13 *953:A *1178:A 0
14 *39:70 *1178:A 4.21281e-05
*RES
1 *1176:Y *258:6 38 
2 *258:6 *1180:B1_N 41.2521 
3 *258:6 *1178:A 49.3721 
*END

*D_NET *259 0.00290744
*CONN
*I *1178:B I *D sky130_fd_sc_hd__nand2_1
*I *1180:A2 I *D sky130_fd_sc_hd__a21bo_1
*I *1177:X O *D sky130_fd_sc_hd__a21o_1
*CAP
1 *1178:B 9.79567e-05
2 *1180:A2 0
3 *1177:X 6.6639e-05
4 *259:14 0.000346509
5 *259:8 0.000511105
6 *259:8 *1177:B1 5.50049e-05
7 *259:14 *1174:RESET_B 5.93381e-05
8 *259:14 *261:12 0.000384805
9 *259:14 *297:425 9.20311e-06
10 *259:14 *298:384 0.000310641
11 *1178:A *1178:B 0.000152434
12 *1178:A *259:14 6.52293e-05
13 *1180:B1_N *259:14 4.08641e-05
14 *39:70 *1178:B 5.50106e-05
15 *256:20 *259:14 9.84794e-05
16 *256:37 *1178:B 0.0002129
17 *256:37 *259:14 0.000441326
*RES
1 *1177:X *259:8 39.0979 
2 *259:8 *259:14 27.0764 
3 *259:14 *1180:A2 23 
4 *259:8 *1178:B 41.5836 
*END

*D_NET *260 0.000736983
*CONN
*I *1179:B I *D sky130_fd_sc_hd__xnor2_1
*I *1178:Y O *D sky130_fd_sc_hd__nand2_1
*CAP
1 *1179:B 0.000110709
2 *1178:Y 9.41287e-05
3 *260:8 0.000204838
4 *1182:CLK *260:8 0
5 *39:51 *260:8 0
6 *256:37 *1179:B 0.000185428
7 *256:37 *260:8 0.000141879
*RES
1 *1178:Y *260:8 40.2579 
2 *260:8 *1179:B 40.5271 
*END

*D_NET *261 0.00153221
*CONN
*I *1177:B1 I *D sky130_fd_sc_hd__a21o_1
*I *1176:A I *D sky130_fd_sc_hd__nand3_1
*I *1181:Q O *D sky130_fd_sc_hd__dfrtp_1
*CAP
1 *1177:B1 0.000122211
2 *1176:A 0
3 *1181:Q 0
4 *261:12 0.000198979
5 *261:4 0.00032119
6 *1177:B1 *278:22 5.50106e-05
7 *1178:A *261:12 0.000382574
8 *256:10 *261:12 1.24376e-05
9 *259:8 *1177:B1 5.50049e-05
10 *259:14 *261:12 0.000384805
*RES
1 *1181:Q *261:4 23 
2 *261:4 *261:12 35.6964 
3 *261:12 *1176:A 23 
4 *261:4 *1177:B1 25.4236 
*END

*D_NET *262 0.00137261
*CONN
*I *1181:D I *D sky130_fd_sc_hd__dfrtp_1
*I *1180:X O *D sky130_fd_sc_hd__a21bo_1
*CAP
1 *1181:D 0.00010039
2 *1180:X 0.000498022
3 *262:10 0.000598412
4 *262:10 *297:425 0
5 *262:10 *298:384 0.000143655
6 *44:10 *262:10 0
7 *44:16 *262:10 0
8 *44:54 *262:10 0
9 *256:20 *262:10 0
10 *257:10 *262:10 3.21327e-05
*RES
1 *1180:X *262:10 46.7621 
2 *262:10 *1181:D 39.5743 
*END

*D_NET *263 0.00255926
*CONN
*I *1187:A1 I *D sky130_fd_sc_hd__a21bo_1
*I *1186:A I *D sky130_fd_sc_hd__xnor2_1
*I *1182:Q O *D sky130_fd_sc_hd__dfrtp_1
*CAP
1 *1187:A1 0.00042004
2 *1186:A 7.12836e-05
3 *1182:Q 0.000336786
4 *263:8 0.000828109
5 *1186:A *1186:B 9.84851e-05
6 *1187:A1 *1185:A 8.48502e-06
7 *1187:A1 *1185:B 0.000181125
8 *1187:A1 *1186:B 9.67842e-05
9 *1187:A1 *1187:A2 0.000147474
10 *1187:A1 *278:10 2.3529e-05
11 *263:8 *278:10 0.000335715
12 *263:8 *279:10 0
13 *1153:CLK *263:8 1.14452e-05
*RES
1 *1182:Q *263:8 46.5964 
2 *263:8 *1186:A 39.5743 
3 *263:8 *1187:A1 45.7057 
*END

*D_NET *264 0.00030651
*CONN
*I *1182:D I *D sky130_fd_sc_hd__dfrtp_1
*I *1179:Y O *D sky130_fd_sc_hd__xnor2_1
*CAP
1 *1182:D 4.24511e-05
2 *1179:Y 0.000110804
3 *264:8 0.000153255
4 *1182:CLK *264:8 0
*RES
1 *1179:Y *264:8 39.9057 
2 *264:8 *1182:D 38.6214 
*END

*D_NET *265 0.00116526
*CONN
*I *1187:B1_N I *D sky130_fd_sc_hd__a21bo_1
*I *1185:A I *D sky130_fd_sc_hd__nand2_1
*I *1183:Y O *D sky130_fd_sc_hd__nand3_1
*CAP
1 *1187:B1_N 0
2 *1185:A 0.000126825
3 *1183:Y 0.000313982
4 *265:12 0.000126825
5 *265:10 0.000313982
6 *1185:A *1185:B 4.66969e-05
7 *1185:A *1186:B 2.93845e-05
8 *265:10 *1183:B 2.45549e-06
9 *265:10 *266:10 1.19692e-05
10 *265:10 *298:734 0
11 *1187:A1 *1185:A 8.48502e-06
12 *33:15 *265:10 2.13054e-05
13 *39:51 *265:10 0.000163352
*RES
1 *1183:Y *265:10 42.785 
2 *265:10 *265:12 15 
3 *265:12 *1185:A 25.5686 
4 *265:12 *1187:B1_N 23 
*END

*D_NET *266 0.001136
*CONN
*I *1185:B I *D sky130_fd_sc_hd__nand2_1
*I *1187:A2 I *D sky130_fd_sc_hd__a21bo_1
*I *1184:X O *D sky130_fd_sc_hd__a21o_1
*CAP
1 *1185:B 9.02637e-05
2 *1187:A2 5.14129e-05
3 *1184:X 0.000148694
4 *266:12 0.000141677
5 *266:10 0.000148694
6 *266:10 *298:734 0.000167994
7 *1185:A *1185:B 4.66969e-05
8 *1187:A1 *1185:B 0.000181125
9 *1187:A1 *1187:A2 0.000147474
10 *39:51 *266:10 0
11 *265:10 *266:10 1.19692e-05
*RES
1 *1184:X *266:10 40.8793 
2 *266:10 *266:12 15 
3 *266:12 *1187:A2 24.0979 
4 *266:12 *1185:B 25.5479 
*END

*D_NET *267 0.000374876
*CONN
*I *1186:B I *D sky130_fd_sc_hd__xnor2_1
*I *1185:Y O *D sky130_fd_sc_hd__nand2_1
*CAP
1 *1186:B 7.51111e-05
2 *1185:Y 7.51111e-05
3 *1185:A *1186:B 2.93845e-05
4 *1186:A *1186:B 9.84851e-05
5 *1187:A1 *1186:B 9.67842e-05
*RES
1 *1185:Y *1186:B 48.0507 
*END

*D_NET *268 0.000978592
*CONN
*I *1183:A I *D sky130_fd_sc_hd__nand3_1
*I *1184:B1 I *D sky130_fd_sc_hd__a21o_1
*I *1188:Q O *D sky130_fd_sc_hd__dfrtp_1
*CAP
1 *1183:A 9.67411e-05
2 *1184:B1 0.000183883
3 *1188:Q 4.55529e-05
4 *268:8 0.000326177
5 *1183:A *1184:A1 8.51329e-05
6 *1184:B1 *1184:A1 0.000138057
7 *1184:B1 *298:734 7.36726e-05
8 *268:8 *269:6 2.93747e-05
*RES
1 *1188:Q *268:8 38.6214 
2 *268:8 *1184:B1 42.2879 
3 *268:8 *1183:A 40.2579 
*END

*D_NET *269 0.000980263
*CONN
*I *1188:D I *D sky130_fd_sc_hd__dfrtp_1
*I *1187:X O *D sky130_fd_sc_hd__a21bo_1
*CAP
1 *1188:D 0
2 *1187:X 0.000413904
3 *269:6 0.000413904
4 *269:6 *1188:RESET_B 0.00012308
5 *268:8 *269:6 2.93747e-05
*RES
1 *1187:X *269:6 31.2443 
2 *269:6 *1188:D 23 
*END

*D_NET *270 0.00155541
*CONN
*I *1189:D I *D sky130_fd_sc_hd__dfrtp_1
*I *1186:Y O *D sky130_fd_sc_hd__xnor2_1
*CAP
1 *1189:D 0
2 *1186:Y 0.000630812
3 *270:10 0.000630812
4 *270:10 *281:10 0
5 *270:10 *297:97 0.000293785
*RES
1 *1186:Y *270:10 47.7564 
2 *270:10 *1189:D 38 
*END

*D_NET *271 0.0090582
*CONN
*I *1134:B I *D sky130_fd_sc_hd__nand3_1
*I *1135:A1 I *D sky130_fd_sc_hd__a21o_1
*I *1190:X O *D sky130_fd_sc_hd__buf_1
*CAP
1 *1134:B 2.51855e-05
2 *1135:A1 0
3 *1190:X 0
4 *271:24 0.000267142
5 *271:12 0.000607003
6 *271:8 0.00306505
7 *271:6 0.00275037
8 *1134:B *1134:C 4.2573e-05
9 *271:8 *1128:A1 0
10 *271:8 *274:14 0
11 *271:8 *286:8 0
12 *271:12 *1134:C 5.50049e-05
13 *271:24 *1139:RESET_B 0.000138031
14 *271:24 *298:294 1.4471e-05
15 *1098:CLK *271:8 0.000114656
16 *1111:CLK *271:8 0.000435501
17 *1132:CLK *271:8 0.000228167
18 *1135:B1 *271:24 0.000143655
19 *37:17 *271:8 0
20 *42:54 *271:8 0.000225691
21 *173:14 *271:8 0
22 *179:10 *271:8 0.000140949
23 *180:22 *271:8 0
24 *181:10 *271:8 0.00014411
25 *186:10 *271:8 0.00014411
26 *193:8 *271:8 0
27 *215:10 *271:24 0.000443679
28 *217:8 *271:24 7.28526e-05
*RES
1 *1190:X *271:6 38 
2 *271:6 *271:8 61.4179 
3 *271:8 *271:12 20.8621 
4 *271:12 *271:24 38.5136 
5 *271:24 *1135:A1 23 
6 *271:12 *1134:B 23.6214 
*END

*D_NET *272 0.0015059
*CONN
*I *994:B I *D sky130_fd_sc_hd__nand3_1
*I *995:A1 I *D sky130_fd_sc_hd__a21o_1
*I *1191:X O *D sky130_fd_sc_hd__clkbuf_1
*CAP
1 *994:B 0
2 *995:A1 0
3 *1191:X 0.000104002
4 *272:22 0.000220821
5 *272:12 0.000364504
6 *272:8 0.000247684
7 *272:8 *273:8 0
8 *272:12 *298:87 9.67842e-05
9 *272:12 *298:102 0.000228909
10 *272:22 *995:A2 1.56107e-05
11 *272:22 *298:87 2.80924e-06
12 *272:22 *306:14 1.59208e-05
13 *272:22 *307:10 2.472e-05
14 *995:B1 *272:22 0
15 *77:10 *272:22 9.84851e-05
16 *80:25 *272:22 8.56466e-05
*RES
1 *1191:X *272:8 39.5536 
2 *272:8 *272:12 18.48 
3 *272:12 *272:22 34.6814 
4 *272:22 *995:A1 23 
5 *272:12 *994:B 23 
*END

*D_NET *273 0.00134482
*CONN
*I *987:B I *D sky130_fd_sc_hd__nand3_1
*I *988:A1 I *D sky130_fd_sc_hd__a21o_1
*I *1192:X O *D sky130_fd_sc_hd__clkbuf_1
*CAP
1 *987:B 0.000109647
2 *988:A1 0
3 *1192:X 7.63852e-05
4 *273:12 0.000359911
5 *273:8 0.000326649
6 *987:B *298:113 2.35625e-05
7 *987:B *298:122 1.4345e-05
8 *273:8 *275:12 0
9 *273:12 *298:102 0.000240987
10 *987:A *987:B 9.74629e-05
11 *987:A *273:12 9.58714e-05
12 *272:8 *273:8 0
*RES
1 *1192:X *273:8 39.2014 
2 *273:8 *273:12 18.9564 
3 *273:12 *988:A1 23 
4 *273:12 *987:B 25.0714 
*END

*D_NET *274 0.00978959
*CONN
*I *1127:B I *D sky130_fd_sc_hd__nand3_1
*I *1128:A1 I *D sky130_fd_sc_hd__a21o_1
*I *1193:X O *D sky130_fd_sc_hd__buf_1
*CAP
1 *1127:B 0
2 *1128:A1 0.000426265
3 *1193:X 0.000227722
4 *274:14 0.00223095
5 *274:12 0.00217842
6 *274:8 0.00060145
7 *1128:A1 *1127:C 0.000131608
8 *274:12 *1092:C 0.000157299
9 *274:12 *286:8 0.000229305
10 *274:12 *291:16 0.00014694
11 *274:12 *298:10 0.000225275
12 *274:12 *298:20 0
13 *274:14 *1127:C 2.74884e-05
14 *274:14 *286:8 0.00228745
15 *274:14 *286:25 0
16 *274:14 *289:16 0
17 *274:14 *289:37 0
18 *274:14 *290:32 0
19 *274:14 *298:214 0
20 *274:14 *298:250 0
21 *274:14 *298:275 0
22 *1110:A2 *274:14 0
23 *1113:A *274:14 0
24 *1114:B1 *274:14 0
25 *1127:A *1128:A1 2.18409e-05
26 *1128:B1 *1128:A1 1.03955e-05
27 *1131:A1 *1128:A1 0.000410922
28 *1131:A2 *1128:A1 2.32004e-05
29 *23:11 *274:8 2.93845e-05
30 *23:11 *274:12 0
31 *26:9 *274:12 0
32 *176:8 *274:12 0.000351617
33 *177:8 *274:12 0
34 *177:8 *274:14 0
35 *182:27 *274:14 6.53445e-05
36 *187:22 *274:14 0
37 *190:8 *274:14 0
38 *197:14 *274:14 0
39 *200:10 *274:14 0
40 *213:10 *1128:A1 6.7177e-06
41 *271:8 *1128:A1 0
42 *271:8 *274:14 0
*RES
1 *1193:X *274:8 41.48 
2 *274:8 *274:12 12.7289 
3 *274:12 *274:14 41.7082 
4 *274:14 *1128:A1 46.8657 
5 *274:14 *1127:B 38 
*END

*D_NET *275 0.00334589
*CONN
*I *980:B I *D sky130_fd_sc_hd__nand3_1
*I *981:A1 I *D sky130_fd_sc_hd__a21o_1
*I *1194:X O *D sky130_fd_sc_hd__clkbuf_1
*CAP
1 *980:B 0.000108308
2 *981:A1 2.33748e-05
3 *1194:X 0.000348736
4 *275:16 0.000575673
5 *275:12 0.000792726
6 *980:B *980:C 4.6337e-05
7 *981:A1 *980:C 5.50049e-05
8 *275:12 *276:16 0.000488697
9 *275:16 *276:16 0.000361292
10 *981:B1 *980:B 0.000139352
11 *64:10 *980:B 0.000139357
12 *68:10 *275:16 0
13 *70:14 *275:12 0
14 *70:14 *275:16 0.000103672
15 *73:10 *275:12 0.000163361
16 *273:8 *275:12 0
*RES
1 *1194:X *275:12 45.9025 
2 *275:12 *275:16 24.8289 
3 *275:16 *981:A1 23.6214 
4 *275:16 *980:B 26.0243 
*END

*D_NET *276 0.00454492
*CONN
*I *974:A1 I *D sky130_fd_sc_hd__a21o_1
*I *973:B I *D sky130_fd_sc_hd__nand3_1
*I *1195:X O *D sky130_fd_sc_hd__buf_1
*CAP
1 *974:A1 0
2 *973:B 0.000113581
3 *1195:X 9.01176e-05
4 *276:16 0.00149917
5 *276:8 0.00147571
6 *973:B *974:A2 6.40944e-05
7 *276:16 *974:A2 2.66911e-05
8 *276:16 *277:10 0
9 *276:16 *298:667 0
10 *974:B1 *276:16 5.67058e-05
11 *984:A2 *276:16 0.000212712
12 *57:8 *276:16 1.01436e-05
13 *62:8 *276:16 0
14 *64:10 *276:16 8.26569e-05
15 *66:10 *276:16 6.33511e-05
16 *275:12 *276:16 0.000488697
17 *275:16 *276:16 0.000361292
*RES
1 *1195:X *276:8 39.0979 
2 *276:8 *276:16 45.2843 
3 *276:16 *973:B 25.0714 
4 *276:16 *974:A1 23 
*END

*D_NET *277 0.00594043
*CONN
*I *1183:B I *D sky130_fd_sc_hd__nand3_1
*I *1184:A1 I *D sky130_fd_sc_hd__a21o_1
*I *1196:X O *D sky130_fd_sc_hd__buf_1
*CAP
1 *1183:B 2.61678e-05
2 *1184:A1 0.000314083
3 *1196:X 9.01176e-05
4 *277:10 0.00225703
5 *277:8 0.0020069
6 *1184:A1 *298:734 0.000408402
7 *277:10 *278:10 0
8 *976:A *277:10 0
9 *984:B1_N *277:10 0.000189184
10 *1183:A *1184:A1 8.51329e-05
11 *1184:B1 *1184:A1 0.000138057
12 *33:15 *1183:B 5.50049e-05
13 *39:51 *1184:A1 0
14 *39:51 *277:10 0
15 *46:63 *277:10 0.000191138
16 *57:8 *277:10 0
17 *60:10 *277:10 0
18 *62:8 *277:10 8.62783e-05
19 *63:10 *277:10 6.07826e-05
20 *65:8 *277:10 2.96909e-05
21 *66:10 *277:10 0
22 *265:10 *1183:B 2.45549e-06
23 *276:16 *277:10 0
*RES
1 *1196:X *277:8 39.0979 
2 *277:8 *277:10 35.3593 
3 *277:10 *1184:A1 45.0014 
4 *277:10 *1183:B 38.6214 
*END

*D_NET *278 0.00984543
*CONN
*I *1177:A1 I *D sky130_fd_sc_hd__a21o_1
*I *1176:B I *D sky130_fd_sc_hd__nand3_1
*I *1197:X O *D sky130_fd_sc_hd__buf_1
*CAP
1 *1177:A1 0
2 *1176:B 0
3 *1197:X 0.000123436
4 *278:22 0.000285251
5 *278:14 0.000368042
6 *278:10 0.0021292
7 *278:8 0.00216985
8 *278:10 *279:10 0
9 *278:14 *1177:A2 9.58714e-05
10 *953:A *278:10 0.000303269
11 *953:A *278:22 0
12 *971:CLK *278:10 0.000210668
13 *1153:CLK *278:10 0.00012827
14 *1177:B1 *278:22 5.50106e-05
15 *1178:A *278:22 0.00041353
16 *1187:A1 *278:10 2.3529e-05
17 *16:11 *278:8 7.53384e-06
18 *39:51 *278:10 0.00227177
19 *45:68 *278:10 9.35752e-05
20 *45:68 *278:22 0
21 *47:31 *278:10 0.000440396
22 *47:40 *278:10 0.000237543
23 *61:29 *278:10 0.000152973
24 *65:8 *278:10 0
25 *263:8 *278:10 0.000335715
26 *277:10 *278:10 0
*RES
1 *1197:X *278:8 39.5743 
2 *278:8 *278:10 56.1357 
3 *278:10 *278:14 16.5743 
4 *278:14 *278:22 37.0014 
5 *278:22 *1176:B 23 
6 *278:14 *1177:A1 23 
*END

*D_NET *279 0.00942516
*CONN
*I *1170:A1 I *D sky130_fd_sc_hd__a21o_1
*I *1169:B I *D sky130_fd_sc_hd__nand3_1
*I *1198:X O *D sky130_fd_sc_hd__buf_1
*CAP
1 *1170:A1 0.000110611
2 *1169:B 0
3 *1198:X 8.04474e-05
4 *279:16 0.000352975
5 *279:10 0.00378526
6 *279:8 0.00362334
7 *1170:A1 *1170:A2 1.22822e-05
8 *279:10 *971:RESET_B 0
9 *279:10 *992:RESET_B 0
10 *279:10 *1148:C 0
11 *279:10 *297:97 0
12 *279:10 *297:697 0
13 *279:10 *298:403 0
14 *279:10 *298:429 0
15 *279:10 *298:492 0
16 *279:10 *298:496 0
17 *279:10 *298:524 0
18 *279:10 *300:10 0.000169665
19 *279:10 *301:10 0.000191649
20 *279:16 *1170:A2 5.70419e-05
21 *1146:CLK *279:10 0
22 *1153:CLK *279:10 0
23 *1167:CLK *279:16 3.98818e-05
24 *1167:D *279:16 0.00010655
25 *1169:A *1170:A1 0.000111596
26 *17:11 *279:8 3.22879e-05
27 *45:16 *279:10 0
28 *45:68 *279:10 0
29 *47:12 *279:10 0.000199701
30 *47:21 *279:10 0.000201503
31 *47:25 *279:10 0.000194251
32 *47:31 *279:10 0
33 *47:40 *279:10 0
34 *47:99 *279:10 0
35 *50:8 *279:10 0.000113749
36 *54:10 *279:10 0
37 *234:8 *279:10 4.23714e-05
38 *263:8 *279:10 0
39 *278:10 *279:10 0
*RES
1 *1198:X *279:8 39.0979 
2 *279:8 *279:10 68.8129 
3 *279:10 *279:16 20.4064 
4 *279:16 *1169:B 23 
5 *279:16 *1170:A1 25.0714 
*END

*D_NET *280 0.0120848
*CONN
*I *1163:A1 I *D sky130_fd_sc_hd__a21o_1
*I *1162:B I *D sky130_fd_sc_hd__nand3_1
*I *1199:X O *D sky130_fd_sc_hd__buf_1
*CAP
1 *1163:A1 0.000280496
2 *1162:B 0.000406973
3 *1199:X 0.000317382
4 *280:14 0.00131182
5 *280:10 0.00240604
6 *280:8 0.00209907
7 *1162:B *1168:RESET_B 0.000139352
8 *1162:B *298:524 9.84794e-05
9 *280:8 *281:8 5.38135e-05
10 *280:10 *1147:RESET_B 9.34338e-05
11 *280:10 *281:10 0.00118443
12 *280:10 *283:10 0.000500311
13 *280:10 *297:649 0.000156449
14 *280:10 *297:661 0.00028083
15 *280:10 *298:443 0.000306202
16 *280:10 *298:460 5.90251e-05
17 *280:14 *1147:RESET_B 0
18 *280:14 *281:10 0.00018042
19 *280:14 *297:44 0
20 *1122:A *280:10 0.000298248
21 *1158:A *280:14 0.000250839
22 *1161:CLK *1163:A1 0.0002246
23 *1163:B1 *1163:A1 2.93747e-05
24 *1164:B *1163:A1 4.00259e-06
25 *1168:CLK *1162:B 0.000221084
26 *1202:A *280:10 6.48049e-05
27 *1203:A *280:10 0
28 *130:10 *280:10 0.000110922
29 *203:10 *280:10 0.000188256
30 *204:25 *280:10 0.000246748
31 *232:10 *280:10 7.91596e-05
32 *235:8 *280:14 0.000128583
33 *237:21 *280:14 2.70366e-05
34 *238:10 *280:14 5.36457e-05
35 *238:20 *280:14 0
36 *239:8 *280:14 0
37 *242:12 *1162:B 0.000139647
38 *243:10 *280:14 0
39 *244:12 *1162:B 1.41077e-05
40 *244:27 *1162:B 5.23457e-05
41 *245:16 *1163:A1 5.61255e-06
42 *246:8 *1162:B 1.37246e-05
43 *249:16 *1162:B 5.75719e-05
44 *250:10 *1162:B 0
*RES
1 *1199:X *280:8 43.3857 
2 *280:8 *280:10 55.2554 
3 *280:10 *280:14 13.7439 
4 *280:14 *1162:B 47.4871 
5 *280:14 *1163:A1 43.4271 
*END

*D_NET *281 0.00902023
*CONN
*I *1155:B I *D sky130_fd_sc_hd__nand3_1
*I *1156:A1 I *D sky130_fd_sc_hd__a21o_1
*I *1200:X O *D sky130_fd_sc_hd__buf_1
*CAP
1 *1155:B 0
2 *1156:A1 0
3 *1200:X 0.000137785
4 *281:24 0.000241779
5 *281:14 0.000430363
6 *281:10 0.00268174
7 *281:8 0.00263094
8 *281:10 *297:88 0
9 *281:10 *297:97 0
10 *281:10 *297:113 0
11 *281:10 *297:122 0
12 *281:10 *297:637 0
13 *281:10 *298:429 0
14 *281:24 *298:403 0.00020394
15 *1155:A *281:14 2.64616e-05
16 *1155:A *281:24 0.000238316
17 *1156:B1 *281:24 0.000169683
18 *45:10 *281:10 0
19 *48:8 *281:10 5.21127e-05
20 *49:8 *281:10 0
21 *54:10 *281:10 0
22 *130:10 *281:10 5.45887e-05
23 *204:25 *281:10 0.000122397
24 *207:8 *281:10 4.59027e-05
25 *231:10 *281:10 7.81073e-05
26 *232:10 *281:10 0.000166513
27 *233:21 *281:10 0.000138718
28 *237:8 *281:14 4.02485e-05
29 *237:21 *281:14 0.000141954
30 *238:20 *281:10 0
31 *270:10 *281:10 0
32 *280:8 *281:8 5.38135e-05
33 *280:10 *281:10 0.00118443
34 *280:14 *281:10 0.00018042
*RES
1 *1200:X *281:8 40.0507 
2 *281:8 *281:10 56.1357 
3 *281:10 *281:14 18.48 
4 *281:14 *281:24 36.67 
5 *281:24 *1156:A1 23 
6 *281:14 *1155:B 23 
*END

*D_NET *282 0.00660662
*CONN
*I *1057:B I *D sky130_fd_sc_hd__nand3_1
*I *1058:A1 I *D sky130_fd_sc_hd__a21o_1
*I *1201:X O *D sky130_fd_sc_hd__buf_1
*CAP
1 *1057:B 0.000218743
2 *1058:A1 0.000374141
3 *1201:X 5.45698e-05
4 *282:14 0.00211328
5 *282:8 0.00157497
6 *1058:A1 *293:12 0.000111852
7 *282:14 *293:12 0.00134344
8 *282:14 *294:27 1.34354e-05
9 *282:14 *296:12 0
10 *282:14 *298:802 0
11 *1057:A *1057:B 5.50049e-05
12 *1057:A *1058:A1 0
13 *1066:A *282:14 7.90568e-05
14 *1068:B1_N *282:14 0.000108662
15 *1074:A *282:14 0
16 *39:24 *282:14 0.000161121
17 *141:10 *1058:A1 5.26733e-06
18 *145:19 *282:14 0
19 *152:10 *282:14 0
20 *162:8 *282:14 0.000354778
21 *163:10 *282:14 0
22 *164:8 *282:14 3.82956e-05
*RES
1 *1201:X *282:8 38.6214 
2 *282:8 *282:14 35.3179 
3 *282:14 *1058:A1 43.0336 
4 *282:14 *1057:B 41.48 
*END

*D_NET *283 0.00785
*CONN
*I *1148:B I *D sky130_fd_sc_hd__nand3_1
*I *1149:A1 I *D sky130_fd_sc_hd__a21o_1
*I *1202:X O *D sky130_fd_sc_hd__buf_1
*CAP
1 *1148:B 0.000355237
2 *1149:A1 0.000157812
3 *1202:X 9.01449e-05
4 *283:10 0.00224685
5 *283:8 0.00182394
6 *1149:A1 *298:439 2.30292e-05
7 *1149:A1 *298:443 0.000111852
8 *283:10 *285:14 0
9 *283:10 *297:649 0.000303278
10 *283:10 *297:661 0.000565428
11 *283:10 *298:443 0.000431182
12 *283:10 *298:460 0.000120396
13 *1045:B *283:10 0
14 *1122:A *283:10 0.000114247
15 *1144:A *283:10 0
16 *53:16 *283:10 0
17 *127:10 *283:10 0
18 *128:8 *283:10 0
19 *129:14 *283:10 0
20 *131:10 *283:10 0
21 *132:8 *283:10 4.59027e-05
22 *203:10 *283:10 5.65491e-05
23 *204:8 *283:10 0.000141888
24 *206:10 *283:10 0.000379413
25 *208:10 *283:10 0
26 *209:8 *283:10 0.000156484
27 *226:14 *283:10 8.41012e-05
28 *233:21 *1148:B 0.000141954
29 *280:10 *283:10 0.000500311
*RES
1 *1202:X *283:8 39.0979 
2 *283:8 *283:10 44.8671 
3 *283:10 *1149:A1 40.6514 
4 *283:10 *1148:B 43.3857 
*END

*D_NET *284 0.00709553
*CONN
*I *1142:A1 I *D sky130_fd_sc_hd__a21o_1
*I *1141:B I *D sky130_fd_sc_hd__nand3_1
*I *1203:X O *D sky130_fd_sc_hd__buf_1
*CAP
1 *1142:A1 1.80505e-05
2 *1141:B 6.3465e-05
3 *1203:X 0.000252446
4 *284:20 0.000490307
5 *284:10 0.00208283
6 *284:8 0.00189038
7 *1141:B *298:460 4.9662e-05
8 *284:10 *1043:B 0.000432772
9 *284:10 *285:14 0
10 *284:10 *287:8 7.6144e-05
11 *284:10 *298:148 7.70038e-05
12 *284:10 *298:154 0.000578766
13 *284:20 *298:460 4.43717e-05
14 *1142:B1 *1142:A1 5.50049e-05
15 *1142:B1 *284:20 2.28331e-05
16 *1144:A *284:20 4.40143e-05
17 *1145:A2 *1142:A1 2.93747e-05
18 *1145:A2 *284:20 0.000351513
19 *22:9 *284:10 3.31127e-05
20 *24:9 *284:10 2.22079e-05
21 *25:11 *284:10 0
22 *33:11 *284:20 0
23 *129:27 *284:10 0.000275473
24 *131:10 *284:10 0
25 *205:10 *284:10 0
26 *209:8 *284:10 0
27 *223:10 *1141:B 3.22879e-05
28 *224:23 *284:20 3.47781e-05
29 *226:14 *284:20 0.000138727
*RES
1 *1203:X *284:8 41.9564 
2 *284:8 *284:10 37.12 
3 *284:10 *284:20 37.54 
4 *284:20 *1141:B 39.595 
5 *284:10 *1142:A1 38.6214 
*END

*D_NET *285 0.00345687
*CONN
*I *1120:B I *D sky130_fd_sc_hd__nand3_1
*I *1121:A1 I *D sky130_fd_sc_hd__a21o_1
*I *1204:X O *D sky130_fd_sc_hd__buf_1
*CAP
1 *1120:B 0
2 *1121:A1 4.86629e-05
3 *1204:X 0
4 *285:14 0.000842282
5 *285:6 0.000793619
6 *1121:A1 *1121:A2 0.000204566
7 *285:14 *1121:A2 4.04303e-05
8 *285:14 *298:148 0.000185573
9 *285:14 *298:154 0.000452873
10 *1045:B *285:14 0
11 *1120:A *1121:A1 3.61695e-05
12 *1120:A *285:14 9.72057e-06
13 *53:16 *285:14 0.000204971
14 *126:16 *285:14 0.000280866
15 *127:10 *285:14 0
16 *128:8 *285:14 9.20311e-06
17 *129:14 *285:14 0.000166522
18 *131:10 *285:14 0.000181412
19 *132:8 *285:14 0
20 *283:10 *285:14 0
21 *284:10 *285:14 0
*RES
1 *1204:X *285:6 38 
2 *285:6 *285:14 38.2207 
3 *285:14 *1121:A1 25.0714 
4 *285:14 *1120:B 23 
*END

*D_NET *286 0.00765924
*CONN
*I *1113:B I *D sky130_fd_sc_hd__nand3_1
*I *1114:A1 I *D sky130_fd_sc_hd__a21o_1
*I *1205:X O *D sky130_fd_sc_hd__buf_1
*CAP
1 *1113:B 0
2 *1114:A1 0
3 *1205:X 0
4 *286:25 0.000321124
5 *286:12 0.000478725
6 *286:8 0.00148682
7 *286:6 0.00132922
8 *286:12 *1114:A2 5.67058e-05
9 *286:25 *1114:A2 0.000215671
10 *286:25 *298:250 3.47781e-05
11 *286:25 *298:265 0.000190457
12 *1114:B1 *286:25 4.07715e-05
13 *173:14 *286:8 0.000216136
14 *176:8 *286:8 0.000354778
15 *179:10 *286:8 0
16 *180:22 *286:8 0.000111148
17 *181:10 *286:8 0
18 *193:8 *286:8 0.000141879
19 *197:14 *286:25 0.000164282
20 *271:8 *286:8 0
21 *274:12 *286:8 0.000229305
22 *274:14 *286:8 0.00228745
23 *274:14 *286:25 0
*RES
1 *1205:X *286:6 38 
2 *286:6 *286:8 40.6414 
3 *286:8 *286:12 17.0507 
4 *286:12 *1114:A1 23 
5 *286:12 *286:25 37.0221 
6 *286:25 *1113:B 23 
*END

*D_NET *287 0.00168203
*CONN
*I *1044:A1 I *D sky130_fd_sc_hd__a21o_1
*I *1043:B I *D sky130_fd_sc_hd__nand3_1
*I *1206:X O *D sky130_fd_sc_hd__clkbuf_1
*CAP
1 *1044:A1 0.000149328
2 *1043:B 0.00030382
3 *1206:X 4.55196e-05
4 *287:8 0.000498668
5 *1044:A1 *288:10 4.2062e-05
6 *1044:A1 *298:144 5.67058e-05
7 *25:11 *1043:B 2.22079e-05
8 *25:11 *287:8 2.5415e-05
9 *129:27 *1043:B 2.93845e-05
10 *284:10 *1043:B 0.000432772
11 *284:10 *287:8 7.6144e-05
*RES
1 *1206:X *287:8 39.2014 
2 *287:8 *1043:B 44.8979 
3 *287:8 *1044:A1 40.0507 
*END

*D_NET *288 0.00183162
*CONN
*I *965:A1 I *D sky130_fd_sc_hd__a21o_1
*I *964:B I *D sky130_fd_sc_hd__nand3_1
*I *1207:X O *D sky130_fd_sc_hd__clkbuf_1
*CAP
1 *965:A1 4.42839e-05
2 *964:B 0
3 *1207:X 0.000509432
4 *288:10 0.000553716
5 *965:A1 *965:A2 5.67058e-05
6 *965:A1 *298:135 0.000149562
7 *288:10 *298:135 2.44913e-05
8 *288:10 *298:144 0.000358093
9 *964:A *965:A1 2.4754e-05
10 *964:A *288:10 3.91386e-05
11 *1044:A1 *288:10 4.2062e-05
12 *127:10 *288:10 2.93845e-05
*RES
1 *1207:X *288:10 33.6679 
2 *288:10 *964:B 23 
3 *288:10 *965:A1 25.0714 
*END

*D_NET *289 0.00755451
*CONN
*I *1106:B I *D sky130_fd_sc_hd__nand3_1
*I *1107:A1 I *D sky130_fd_sc_hd__a21o_1
*I *1208:X O *D sky130_fd_sc_hd__buf_1
*CAP
1 *1106:B 0
2 *1107:A1 6.87606e-05
3 *1208:X 0
4 *289:37 0.000292442
5 *289:18 0.000361203
6 *289:16 0.00135018
7 *289:6 0.00135018
8 *1107:A1 *1107:A2 4.95081e-05
9 *289:16 *290:14 0.001258
10 *289:16 *290:32 7.09841e-05
11 *289:16 *298:20 2.09183e-05
12 *289:16 *298:214 0.000367707
13 *289:16 *298:229 0.000215056
14 *289:37 *298:244 4.99753e-06
15 *289:37 *298:250 3.03165e-05
16 *1092:A *289:16 0.000271401
17 *1093:B1 *289:16 8.85189e-05
18 *1099:A *289:16 0.000126343
19 *1100:B1 *289:16 0.000215801
20 *1101:A *289:16 0
21 *1106:A *289:37 0.000273623
22 *1107:B1 *1107:A1 5.50049e-05
23 *1107:B1 *289:16 6.7177e-06
24 *1107:B1 *289:37 0.000199422
25 *1110:A2 *289:37 0.000219891
26 *177:8 *289:16 0.000318493
27 *180:10 *289:16 0.000189081
28 *187:10 *289:16 0
29 *187:22 *289:37 1.12487e-05
30 *190:8 *289:37 0.000138727
31 *274:14 *289:16 0
32 *274:14 *289:37 0
*RES
1 *1208:X *289:6 38 
2 *289:6 *289:16 36.0843 
3 *289:16 *289:18 15 
4 *289:18 *1107:A1 24.5743 
5 *289:18 *289:37 37.6436 
6 *289:37 *1106:B 23 
*END

*D_NET *290 0.0053116
*CONN
*I *1099:B I *D sky130_fd_sc_hd__nand3_1
*I *1100:A1 I *D sky130_fd_sc_hd__a21o_1
*I *1209:X O *D sky130_fd_sc_hd__buf_1
*CAP
1 *1099:B 0
2 *1100:A1 0
3 *1209:X 4.72659e-05
4 *290:32 0.00039431
5 *290:14 0.00109984
6 *290:8 0.000752798
7 *290:8 *291:10 1.94812e-05
8 *290:14 *297:286 0.000245138
9 *290:14 *297:288 0.000104569
10 *290:14 *297:290 4.16764e-05
11 *290:14 *297:292 0.000103824
12 *290:32 *298:214 0.000370423
13 *290:32 *298:221 4.74892e-06
14 *1100:B1 *290:32 5.90675e-06
15 *1101:B *290:32 3.70526e-05
16 *172:10 *290:14 6.93449e-05
17 *180:10 *290:14 0.000408138
18 *182:10 *290:14 9.5877e-05
19 *182:27 *290:32 0.000182223
20 *274:14 *290:32 0
21 *289:16 *290:14 0.001258
22 *289:16 *290:32 7.09841e-05
*RES
1 *1209:X *290:8 38.6214 
2 *290:8 *290:14 38.9043 
3 *290:14 *290:32 38.9071 
4 *290:32 *1100:A1 23 
5 *290:14 *1099:B 23 
*END

*D_NET *291 0.00175803
*CONN
*I *1093:A1 I *D sky130_fd_sc_hd__a21o_1
*I *1092:B I *D sky130_fd_sc_hd__nand3_1
*I *1210:X O *D sky130_fd_sc_hd__clkbuf_1
*CAP
1 *1093:A1 0
2 *1092:B 0
3 *1210:X 0.000374626
4 *291:16 0.000166999
5 *291:10 0.000541625
6 *291:16 *298:20 0.000430941
7 *1093:B1 *291:10 7.74193e-05
8 *274:12 *291:16 0.00014694
9 *290:8 *291:10 1.94812e-05
*RES
1 *1210:X *291:10 29.8564 
2 *291:10 *291:16 35.7793 
3 *291:16 *1092:B 23 
4 *291:10 *1093:A1 23 
*END

*D_NET *292 0.00238241
*CONN
*I *1086:A1 I *D sky130_fd_sc_hd__a21o_1
*I *1085:B I *D sky130_fd_sc_hd__nand3_1
*I *1211:X O *D sky130_fd_sc_hd__clkbuf_1
*CAP
1 *1086:A1 4.63208e-05
2 *1085:B 0.00023631
3 *1211:X 0.000484244
4 *292:12 0.000766875
5 *1085:B *295:14 1.03972e-05
6 *1085:B *298:194 1.90822e-05
7 *292:12 *1086:A2 5.86204e-05
8 *292:12 *295:14 0.000174814
9 *292:12 *298:54 0.000192261
10 *1087:A *1085:B 1.59071e-05
11 *169:25 *1085:B 0.000193221
12 *169:25 *1086:A1 5.54294e-05
13 *169:25 *292:12 3.43144e-05
14 *170:10 *1085:B 5.40337e-05
15 *171:22 *1085:B 4.0578e-05
*RES
1 *1211:X *292:12 46.9279 
2 *292:12 *1085:B 43.2821 
3 *292:12 *1086:A1 38.6214 
*END

*D_NET *293 0.00877278
*CONN
*I *1050:B I *D sky130_fd_sc_hd__nand3_1
*I *1051:A1 I *D sky130_fd_sc_hd__a21o_1
*I *1212:X O *D sky130_fd_sc_hd__buf_1
*CAP
1 *1050:B 0
2 *1051:A1 5.44518e-05
3 *1212:X 5.45698e-05
4 *293:18 0.000935368
5 *293:12 0.00250572
6 *293:8 0.00167937
7 *1051:A1 *1050:C 0
8 *1051:A1 *1051:A2 5.67058e-05
9 *1051:A1 *298:572 1.22822e-05
10 *293:12 *294:27 6.16439e-05
11 *293:12 *296:25 0.000296008
12 *293:12 *302:10 0
13 *293:18 *1050:C 5.67058e-05
14 *293:18 *298:572 8.51461e-05
15 *293:18 *302:10 0
16 *293:18 *302:14 0.000764146
17 *1050:A *1051:A1 3.61695e-05
18 *1057:A *293:12 0
19 *1057:A *293:18 0
20 *1058:A1 *293:12 0.000111852
21 *41:56 *293:18 0
22 *133:8 *1051:A1 0.00010018
23 *138:25 *293:18 5.30518e-05
24 *140:8 *293:18 0
25 *142:10 *293:18 0.000141879
26 *160:10 *293:12 3.56537e-05
27 *161:10 *293:12 0.000354769
28 *164:8 *293:12 3.36638e-05
29 *282:14 *293:12 0.00134344
*RES
1 *1212:X *293:8 38.6214 
2 *293:8 *293:12 36.1568 
3 *293:12 *293:18 36.9675 
4 *293:18 *1051:A1 25.0714 
5 *293:18 *1050:B 23 
*END

*D_NET *294 0.00234123
*CONN
*I *1078:B I *D sky130_fd_sc_hd__nand3_1
*I *1079:A1 I *D sky130_fd_sc_hd__a21o_1
*I *1213:X O *D sky130_fd_sc_hd__clkbuf_1
*CAP
1 *1078:B 0
2 *1079:A1 0
3 *1213:X 0.000519413
4 *294:27 0.000222747
5 *294:14 0.000359106
6 *294:10 0.000655772
7 *294:10 *295:8 2.7237e-05
8 *294:10 *296:12 8.4047e-05
9 *294:10 *297:274 4.6318e-06
10 *294:14 *298:54 6.9805e-05
11 *294:14 *298:63 5.67058e-05
12 *294:27 *298:63 0.000256544
13 *164:8 *294:27 1.01436e-05
14 *282:14 *294:27 1.34354e-05
15 *293:12 *294:27 6.16439e-05
*RES
1 *1213:X *294:10 45.0636 
2 *294:10 *294:14 17.0507 
3 *294:14 *1079:A1 23 
4 *294:14 *294:27 33.8529 
5 *294:27 *1078:B 23 
*END

*D_NET *295 0.00372449
*CONN
*I *1071:B I *D sky130_fd_sc_hd__nand3_1
*I *1072:A1 I *D sky130_fd_sc_hd__a21o_1
*I *1214:X O *D sky130_fd_sc_hd__clkbuf_1
*CAP
1 *1071:B 0
2 *1072:A1 0.000328394
3 *1214:X 6.03238e-05
4 *295:14 0.00127974
5 *295:8 0.00101167
6 *1072:A1 *298:196 0
7 *1072:A1 *298:789 5.79559e-05
8 *295:14 *297:247 0
9 *295:14 *297:254 0
10 *295:14 *297:274 0
11 *295:14 *298:194 0
12 *295:14 *298:196 0
13 *1071:A *1072:A1 0.000236087
14 *1071:A *295:14 3.64246e-05
15 *1072:B1 *1072:A1 0.000295844
16 *1082:A1 *295:14 0
17 *1085:B *295:14 1.03972e-05
18 *31:9 *295:14 0
19 *159:8 *295:14 0
20 *165:10 *295:14 3.81391e-05
21 *169:25 *295:14 0.000167452
22 *292:12 *295:14 0.000174814
23 *294:10 *295:8 2.7237e-05
*RES
1 *1214:X *295:8 39.0979 
2 *295:8 *295:14 19.3471 
3 *295:14 *1072:A1 45.8093 
4 *295:14 *1071:B 38 
*END

*D_NET *296 0.00504786
*CONN
*I *1064:B I *D sky130_fd_sc_hd__nand3_1
*I *1065:A1 I *D sky130_fd_sc_hd__a21o_1
*I *1215:X O *D sky130_fd_sc_hd__buf_1
*CAP
1 *1064:B 0
2 *1065:A1 0
3 *1215:X 5.45426e-05
4 *296:25 0.000472168
5 *296:12 0.00149015
6 *296:8 0.00107252
7 *296:12 *297:233 0.000201464
8 *296:12 *297:247 0.000408895
9 *296:12 *297:254 7.66085e-05
10 *296:12 *297:274 3.39335e-05
11 *296:25 *298:830 0.000619079
12 *1074:A *296:12 5.15096e-05
13 *39:24 *296:12 0
14 *152:10 *296:12 0.000114083
15 *163:10 *296:12 7.28526e-05
16 *282:14 *296:12 0
17 *293:12 *296:25 0.000296008
18 *294:10 *296:12 8.4047e-05
*RES
1 *1215:X *296:8 38.6214 
2 *296:8 *296:12 38.7386 
3 *296:12 *1065:A1 23 
4 *296:12 *296:25 39.4043 
5 *296:25 *1064:B 23 
*END

*D_NET *297 0.0951588
*CONN
*I *1168:RESET_B I *D sky130_fd_sc_hd__dfrtp_1
*I *1126:RESET_B I *D sky130_fd_sc_hd__dfrtp_1
*I *1189:RESET_B I *D sky130_fd_sc_hd__dfrtp_1
*I *1049:RESET_B I *D sky130_fd_sc_hd__dfrtp_1
*I *1048:RESET_B I *D sky130_fd_sc_hd__dfrtp_1
*I *971:RESET_B I *D sky130_fd_sc_hd__dfrtp_1
*I *992:RESET_B I *D sky130_fd_sc_hd__dfrtp_1
*I *1000:RESET_B I *D sky130_fd_sc_hd__dfrtp_1
*I *1084:RESET_B I *D sky130_fd_sc_hd__dfrtp_1
*I *993:RESET_B I *D sky130_fd_sc_hd__dfrtp_1
*I *972:RESET_B I *D sky130_fd_sc_hd__dfrtp_1
*I *986:RESET_B I *D sky130_fd_sc_hd__dfrtp_1
*I *1006:RESET_B I *D sky130_fd_sc_hd__dfrtp_1
*I *1090:RESET_B I *D sky130_fd_sc_hd__dfrtp_1
*I *1091:RESET_B I *D sky130_fd_sc_hd__dfrtp_1
*I *1098:RESET_B I *D sky130_fd_sc_hd__dfrtp_1
*I *1076:RESET_B I *D sky130_fd_sc_hd__dfrtp_1
*I *1104:RESET_B I *D sky130_fd_sc_hd__dfrtp_1
*I *1105:RESET_B I *D sky130_fd_sc_hd__dfrtp_1
*I *1069:RESET_B I *D sky130_fd_sc_hd__dfrtp_1
*I *1111:RESET_B I *D sky130_fd_sc_hd__dfrtp_1
*I *1062:RESET_B I *D sky130_fd_sc_hd__dfrtp_1
*I *1118:RESET_B I *D sky130_fd_sc_hd__dfrtp_1
*I *1119:RESET_B I *D sky130_fd_sc_hd__dfrtp_1
*I *1132:RESET_B I *D sky130_fd_sc_hd__dfrtp_1
*I *1055:RESET_B I *D sky130_fd_sc_hd__dfrtp_1
*I *1133:RESET_B I *D sky130_fd_sc_hd__dfrtp_1
*I *1139:RESET_B I *D sky130_fd_sc_hd__dfrtp_1
*I *1042:RESET_B I *D sky130_fd_sc_hd__dfrtp_1
*I *1041:RESET_B I *D sky130_fd_sc_hd__dfrtp_1
*I *1020:RESET_B I *D sky130_fd_sc_hd__dfrtp_1
*I *1056:RESET_B I *D sky130_fd_sc_hd__dfrtp_1
*I *1021:RESET_B I *D sky130_fd_sc_hd__dfrtp_1
*I *1027:RESET_B I *D sky130_fd_sc_hd__dfrtp_1
*I *1014:RESET_B I *D sky130_fd_sc_hd__dfrtp_1
*I *1181:RESET_B I *D sky130_fd_sc_hd__dfrtp_1
*I *1174:RESET_B I *D sky130_fd_sc_hd__dfrtp_1
*I *1175:RESET_B I *D sky130_fd_sc_hd__dfrtp_1
*I *1028:RESET_B I *D sky130_fd_sc_hd__dfrtp_1
*I *1035:RESET_B I *D sky130_fd_sc_hd__dfrtp_1
*I *1034:RESET_B I *D sky130_fd_sc_hd__dfrtp_1
*I *1140:RESET_B I *D sky130_fd_sc_hd__dfrtp_1
*I *1112:RESET_B I *D sky130_fd_sc_hd__dfrtp_1
*I *1097:RESET_B I *D sky130_fd_sc_hd__dfrtp_1
*I *999:RESET_B I *D sky130_fd_sc_hd__dfrtp_1
*I *1083:RESET_B I *D sky130_fd_sc_hd__dfrtp_1
*I *1077:RESET_B I *D sky130_fd_sc_hd__dfrtp_1
*I *1070:RESET_B I *D sky130_fd_sc_hd__dfrtp_1
*I *1007:RESET_B I *D sky130_fd_sc_hd__dfrtp_1
*I *1063:RESET_B I *D sky130_fd_sc_hd__dfrtp_1
*I *1188:RESET_B I *D sky130_fd_sc_hd__dfrtp_1
*I *978:RESET_B I *D sky130_fd_sc_hd__dfrtp_1
*I *1013:RESET_B I *D sky130_fd_sc_hd__dfrtp_1
*I *985:RESET_B I *D sky130_fd_sc_hd__dfrtp_1
*I *979:RESET_B I *D sky130_fd_sc_hd__dfrtp_1
*I *1125:RESET_B I *D sky130_fd_sc_hd__dfrtp_1
*I *1146:RESET_B I *D sky130_fd_sc_hd__dfrtp_1
*I *1153:RESET_B I *D sky130_fd_sc_hd__dfrtp_1
*I *1182:RESET_B I *D sky130_fd_sc_hd__dfrtp_1
*I *1147:RESET_B I *D sky130_fd_sc_hd__dfrtp_1
*I *1154:RESET_B I *D sky130_fd_sc_hd__dfrtp_1
*I *1160:RESET_B I *D sky130_fd_sc_hd__dfrtp_1
*I *1161:RESET_B I *D sky130_fd_sc_hd__dfrtp_1
*I *1167:RESET_B I *D sky130_fd_sc_hd__dfrtp_1
*I *1216:X O *D sky130_fd_sc_hd__buf_12
*CAP
1 *1168:RESET_B 0.000297317
2 *1126:RESET_B 0.000515061
3 *1189:RESET_B 5.81061e-05
4 *1049:RESET_B 0.000125121
5 *1048:RESET_B 7.66215e-05
6 *971:RESET_B 0.000259261
7 *992:RESET_B 0.000745185
8 *1000:RESET_B 1.956e-05
9 *1084:RESET_B 0.000532165
10 *993:RESET_B 0.000257607
11 *972:RESET_B 7.52819e-05
12 *986:RESET_B 5.2782e-05
13 *1006:RESET_B 6.23341e-06
14 *1090:RESET_B 7.59987e-06
15 *1091:RESET_B 0
16 *1098:RESET_B 0.000250381
17 *1076:RESET_B 5.77856e-05
18 *1104:RESET_B 0.000259688
19 *1105:RESET_B 1.84885e-05
20 *1069:RESET_B 0.00063848
21 *1111:RESET_B 0.00051691
22 *1062:RESET_B 0.000330071
23 *1118:RESET_B 0.000387882
24 *1119:RESET_B 0
25 *1132:RESET_B 0.000445016
26 *1055:RESET_B 0.00023602
27 *1133:RESET_B 0
28 *1139:RESET_B 0.000472994
29 *1042:RESET_B 0
30 *1041:RESET_B 5.58728e-06
31 *1020:RESET_B 0.000158267
32 *1056:RESET_B 0.000102595
33 *1021:RESET_B 0
34 *1027:RESET_B 0
35 *1014:RESET_B 0.000625854
36 *1181:RESET_B 0
37 *1174:RESET_B 0.000550845
38 *1175:RESET_B 0.000974119
39 *1028:RESET_B 0.0006203
40 *1035:RESET_B 0.000759417
41 *1034:RESET_B 0.00131913
42 *1140:RESET_B 0.000460319
43 *1112:RESET_B 3.55882e-05
44 *1097:RESET_B 0.000258113
45 *999:RESET_B 0.000655689
46 *1083:RESET_B 0
47 *1077:RESET_B 7.52819e-05
48 *1070:RESET_B 0.000923034
49 *1007:RESET_B 0.000273646
50 *1063:RESET_B 0
51 *1188:RESET_B 0.00048309
52 *978:RESET_B 0.00132292
53 *1013:RESET_B 4.32137e-05
54 *985:RESET_B 0.00124026
55 *979:RESET_B 7.40153e-06
56 *1125:RESET_B 0
57 *1146:RESET_B 7.77613e-05
58 *1153:RESET_B 0
59 *1182:RESET_B 0.000829907
60 *1147:RESET_B 0.000764223
61 *1154:RESET_B 0
62 *1160:RESET_B 0.000110909
63 *1161:RESET_B 0.000247901
64 *1167:RESET_B 9.63224e-05
65 *1216:X 0.000566246
66 *297:697 0.00215522
67 *297:681 0.00234868
68 *297:673 0.00065261
69 *297:667 0.0012432
70 *297:661 0.000889005
71 *297:649 0.000392995
72 *297:645 0.000522955
73 *297:637 0.000725102
74 *297:474 0.00119297
75 *297:461 0.00105699
76 *297:450 0.000509612
77 *297:425 0.000888075
78 *297:412 0.000813066
79 *297:400 0.0016442
80 *297:357 0.00103564
81 *297:341 0.000713421
82 *297:337 0.000241765
83 *297:335 0.000627175
84 *297:333 9.89366e-05
85 *297:331 0.000583114
86 *297:327 0.00106717
87 *297:325 0.000460305
88 *297:323 0.000609673
89 *297:312 0.000218039
90 *297:310 0.000619337
91 *297:308 0.00127682
92 *297:302 0.00138586
93 *297:296 0.000466699
94 *297:292 0.000762709
95 *297:290 0.000422994
96 *297:288 0.000513808
97 *297:286 0.000627221
98 *297:276 0.000805883
99 *297:274 0.00103149
100 *297:254 0.00172841
101 *297:247 0.000508154
102 *297:233 0.000931816
103 *297:181 0.000992309
104 *297:175 0.000181436
105 *297:173 0.000518207
106 *297:171 0.000900261
107 *297:165 0.00152175
108 *297:144 0.000871919
109 *297:126 0.00103464
110 *297:122 0.00069288
111 *297:113 0.000419435
112 *297:101 0.000328385
113 *297:99 0.000169933
114 *297:97 0.00122725
115 *297:88 0.000641861
116 *297:76 0.00135207
117 *297:56 0.00068313
118 *297:44 0.00101496
119 *297:20 0.000813689
120 *297:10 0.000270535
121 *297:8 0.000976471
122 *971:RESET_B *298:122 4.83893e-05
123 *999:RESET_B *298:54 0.000123944
124 *999:RESET_B *298:63 9.32275e-05
125 *999:RESET_B *298:72 0.000587243
126 *1013:RESET_B *303:8 0.000141879
127 *1020:RESET_B *302:14 2.472e-05
128 *1020:RESET_B *303:8 0
129 *1028:RESET_B *1029:C 0
130 *1028:RESET_B *298:376 0
131 *1035:RESET_B *303:35 1.40958e-05
132 *1069:RESET_B *298:204 6.22284e-05
133 *1139:RESET_B *298:324 0.00021752
134 *1182:RESET_B *298:439 8.19644e-06
135 *1188:RESET_B *298:645 0
136 *297:8 *298:524 0
137 *297:10 *298:524 0
138 *297:97 *1148:C 1.47563e-05
139 *297:144 *298:667 0
140 *297:171 *303:8 0.000145844
141 *297:173 *303:8 4.07715e-05
142 *297:175 *303:8 6.6869e-05
143 *297:181 *303:8 0.00029899
144 *297:274 *298:54 0.000265088
145 *297:286 *298:35 0
146 *297:296 *298:229 0
147 *297:308 *298:229 0
148 *297:400 *298:384 0.0001042
149 *297:474 *304:10 0
150 *297:673 *300:10 1.05235e-05
151 *297:697 *300:10 0
152 *969:A2 *297:667 5.50106e-05
153 *978:CLK *978:RESET_B 9.91895e-05
154 *978:D *978:RESET_B 4.33253e-05
155 *984:A1 *297:144 6.45243e-05
156 *984:A2 *297:144 0.000192691
157 *984:B1_N *297:144 0.000271476
158 *985:CLK *297:165 0.000310641
159 *985:D *297:165 7.48987e-05
160 *1000:CLK *1084:RESET_B 0.000141154
161 *1005:A1 *297:165 0.00031345
162 *1005:B1_N *297:165 5.50106e-05
163 *1011:A *1188:RESET_B 0
164 *1013:CLK *297:175 1.22803e-05
165 *1013:CLK *297:181 2.45964e-05
166 *1022:A *297:461 0
167 *1022:A *297:474 0
168 *1023:B1 *297:450 7.08106e-05
169 *1023:B1 *297:461 0
170 *1024:A *1175:RESET_B 3.7122e-06
171 *1025:A *297:450 0.000190131
172 *1029:A *1035:RESET_B 5.67058e-05
173 *1048:CLK *992:RESET_B 1.59094e-05
174 *1048:CLK *297:667 5.14746e-06
175 *1049:CLK *297:645 6.9805e-05
176 *1049:D *1049:RESET_B 9.91798e-05
177 *1049:D *297:645 6.17437e-06
178 *1055:CLK *1055:RESET_B 0.000167877
179 *1062:CLK *1062:RESET_B 0.000188934
180 *1062:CLK *297:310 3.70187e-05
181 *1062:CLK *297:312 0.000155776
182 *1062:CLK *297:323 5.55911e-05
183 *1069:CLK *1069:RESET_B 1.94812e-05
184 *1069:D *1069:RESET_B 0.000143286
185 *1070:CLK *1070:RESET_B 6.88885e-05
186 *1071:A *297:233 0
187 *1071:A *297:247 0
188 *1079:B1 *999:RESET_B 7.44257e-05
189 *1082:A1 *297:247 0.000223043
190 *1097:CLK *1097:RESET_B 8.87126e-05
191 *1101:A *297:296 8.16253e-05
192 *1102:A *1104:RESET_B 9.67842e-05
193 *1105:D *1105:RESET_B 3.08719e-06
194 *1105:D *297:302 6.70324e-05
195 *1108:B *1111:RESET_B 0.000136743
196 *1109:A *1111:RESET_B 1.76557e-05
197 *1109:B *1111:RESET_B 6.99589e-05
198 *1112:D *297:310 0
199 *1113:A *1118:RESET_B 5.50049e-05
200 *1115:A *1118:RESET_B 8.84295e-05
201 *1118:D *1118:RESET_B 4.83893e-05
202 *1126:CLK *1126:RESET_B 4.75206e-05
203 *1126:D *1126:RESET_B 9.06047e-05
204 *1130:A *297:327 0
205 *1130:B *1132:RESET_B 0.000156058
206 *1135:B1 *1139:RESET_B 0.00014196
207 *1140:CLK *1140:RESET_B 6.87592e-05
208 *1140:CLK *297:337 6.48049e-05
209 *1140:CLK *297:341 6.08032e-05
210 *1140:D *1140:RESET_B 0.000376424
211 *1146:CLK *1146:RESET_B 9.08434e-05
212 *1146:CLK *297:113 7.80035e-05
213 *1152:A1 *297:76 0.000312348
214 *1153:D *1182:RESET_B 0.000123934
215 *1159:A1 *297:56 0.000139346
216 *1161:CLK *1161:RESET_B 8.39179e-05
217 *1162:A *297:10 1.22906e-05
218 *1162:B *1168:RESET_B 0.000139352
219 *1164:B *1161:RESET_B 5.15762e-05
220 *1168:CLK *1168:RESET_B 2.4754e-05
221 *1168:CLK *297:10 0.000136486
222 *1172:A *1174:RESET_B 7.30978e-05
223 *1188:CLK *1188:RESET_B 0.000157918
224 *33:15 *1146:RESET_B 9.18694e-05
225 *39:24 *297:233 0.000357631
226 *39:87 *1020:RESET_B 9.48381e-06
227 *39:87 *1056:RESET_B 0.000218386
228 *39:87 *297:474 7.1349e-05
229 *40:8 *297:327 0.000111182
230 *40:10 *297:327 0.000132665
231 *40:16 *297:327 0.000308661
232 *40:16 *297:331 0.00040743
233 *40:16 *297:333 0.000113153
234 *40:16 *297:335 6.48142e-05
235 *40:16 *297:337 0.000185104
236 *40:68 *1140:RESET_B 9.5956e-06
237 *40:68 *297:341 3.26418e-05
238 *40:95 *297:323 3.47781e-05
239 *40:95 *297:325 0.000253061
240 *40:95 *297:327 0.000157309
241 *40:103 *1118:RESET_B 0.000704794
242 *40:110 *297:323 0.000117837
243 *41:78 *1035:RESET_B 0
244 *42:44 *1076:RESET_B 0.000267205
245 *42:120 *1090:RESET_B 1.12709e-05
246 *42:120 *1097:RESET_B 3.75094e-05
247 *42:120 *297:274 4.06646e-05
248 *42:120 *297:276 3.80755e-05
249 *43:12 *297:171 0
250 *43:23 *297:171 0
251 *43:39 *297:171 0
252 *43:54 *1084:RESET_B 0.000195118
253 *43:79 *297:173 0.0001606
254 *43:79 *297:175 5.56203e-05
255 *44:16 *297:400 0
256 *44:85 *1014:RESET_B 0
257 *45:16 *297:44 0.000626648
258 *45:18 *297:10 8.72173e-05
259 *45:18 *297:20 0.000126343
260 *45:18 *297:44 7.70737e-05
261 *45:55 *1160:RESET_B 8.79516e-05
262 *46:55 *297:144 0.000483643
263 *47:12 *297:637 0
264 *47:21 *297:637 0
265 *47:31 *297:697 0.000197479
266 *47:40 *992:RESET_B 0.000129513
267 *47:40 *297:697 3.70094e-05
268 *47:83 *986:RESET_B 5.03619e-05
269 *47:83 *297:645 0.000153155
270 *47:99 *297:113 0.000385735
271 *47:99 *297:122 0.000294055
272 *47:99 *297:637 0.000122304
273 *47:120 *1126:RESET_B 6.69899e-05
274 *47:120 *1189:RESET_B 2.33744e-05
275 *47:120 *297:99 4.75206e-05
276 *48:14 *297:667 7.97636e-05
277 *49:8 *971:RESET_B 5.15745e-05
278 *49:12 *297:667 4.95081e-05
279 *50:8 *297:673 0.000114092
280 *61:6 *979:RESET_B 2.8521e-05
281 *61:6 *297:126 4.95081e-05
282 *61:6 *297:144 0.000245491
283 *64:10 *297:144 2.70366e-05
284 *67:8 *297:144 0.000354778
285 *72:10 *297:697 7.73389e-05
286 *73:10 *992:RESET_B 1.73399e-05
287 *76:10 *993:RESET_B 0.000125313
288 *88:6 *1006:RESET_B 2.09871e-05
289 *88:6 *297:165 0.000224204
290 *88:6 *297:171 7.44354e-05
291 *89:8 *1007:RESET_B 0.00013404
292 *92:16 *1188:RESET_B 4.6318e-06
293 *96:10 *297:474 2.45549e-06
294 *99:10 *297:474 3.87132e-05
295 *105:10 *297:450 3.14214e-05
296 *105:10 *297:461 5.85195e-05
297 *105:10 *297:474 2.3529e-05
298 *107:10 *1175:RESET_B 4.38068e-06
299 *107:10 *297:450 0.000111852
300 *110:8 *1028:RESET_B 0
301 *110:18 *1028:RESET_B 0
302 *111:8 *297:400 0
303 *111:8 *297:450 0
304 *113:10 *1035:RESET_B 0
305 *115:12 *1035:RESET_B 7.73735e-05
306 *116:10 *1035:RESET_B 0
307 *117:14 *1034:RESET_B 0.000183983
308 *117:14 *1035:RESET_B 0.000632162
309 *117:26 *1034:RESET_B 4.67488e-05
310 *121:8 *1035:RESET_B 0
311 *122:8 *1034:RESET_B 0.000130197
312 *123:6 *1034:RESET_B 0.000340725
313 *123:6 *1041:RESET_B 2.09333e-05
314 *123:6 *297:357 0.000101925
315 *138:8 *1020:RESET_B 0.000196549
316 *144:6 *1062:RESET_B 0.00012308
317 *146:10 *1013:RESET_B 0.00014411
318 *146:10 *297:181 0.000241616
319 *152:10 *297:233 9.36522e-05
320 *153:10 *1007:RESET_B 1.94812e-05
321 *153:10 *297:171 3.70187e-05
322 *153:10 *297:173 0.00032159
323 *154:10 *297:233 0
324 *155:10 *297:233 0
325 *158:6 *1076:RESET_B 0.000127442
326 *159:8 *297:247 0.000354769
327 *161:10 *999:RESET_B 5.3304e-05
328 *165:10 *297:247 0
329 *172:10 *297:286 0.000138718
330 *174:8 *297:286 0
331 *174:8 *297:288 0
332 *180:10 *1098:RESET_B 5.50049e-05
333 *180:22 *1104:RESET_B 7.96251e-05
334 *182:10 *297:292 4.85126e-05
335 *182:10 *297:296 5.6652e-05
336 *187:10 *297:308 0
337 *187:22 *1111:RESET_B 2.07248e-05
338 *188:8 *1069:RESET_B 0
339 *188:8 *297:296 0.000323822
340 *188:8 *297:308 0
341 *195:8 *1111:RESET_B 9.78683e-05
342 *198:8 *297:327 0
343 *201:10 *297:327 0
344 *207:8 *297:122 0
345 *213:10 *1132:RESET_B 3.66903e-05
346 *215:10 *1139:RESET_B 4.31693e-05
347 *216:8 *1132:RESET_B 0.000144494
348 *222:8 *297:357 8.06804e-06
349 *227:6 *1146:RESET_B 5.3275e-05
350 *228:23 *1147:RESET_B 0
351 *228:23 *297:76 1.69296e-05
352 *230:8 *297:76 8.62783e-05
353 *230:8 *297:88 8.24662e-05
354 *230:8 *297:97 0.000129504
355 *231:10 *297:76 2.29192e-05
356 *231:10 *297:88 2.76611e-06
357 *233:21 *297:97 0
358 *235:8 *297:56 0
359 *237:21 *297:56 4.58924e-05
360 *238:20 *1160:RESET_B 5.3304e-05
361 *238:20 *297:44 6.16531e-05
362 *238:20 *297:56 8.17328e-05
363 *239:8 *297:44 0.000181151
364 *241:6 *1160:RESET_B 5.77745e-05
365 *242:8 *1161:RESET_B 0.000437057
366 *242:26 *1167:RESET_B 0.000170989
367 *244:27 *1161:RESET_B 5.50106e-05
368 *244:27 *297:10 0.000164282
369 *244:27 *297:20 0.000138727
370 *244:27 *297:44 6.16439e-05
371 *247:8 *1167:RESET_B 4.67488e-05
372 *249:8 *1168:RESET_B 0.000104328
373 *249:16 *1168:RESET_B 7.74658e-05
374 *249:16 *297:8 1.12487e-05
375 *249:16 *297:10 3.82564e-05
376 *249:18 *1174:RESET_B 8.93326e-05
377 *251:21 *1174:RESET_B 0
378 *252:21 *1174:RESET_B 7.28526e-05
379 *254:8 *1174:RESET_B 0
380 *256:20 *1174:RESET_B 0.000215791
381 *256:20 *1175:RESET_B 1.59094e-05
382 *256:20 *297:425 2.55642e-05
383 *256:37 *1014:RESET_B 0.000316686
384 *256:37 *297:425 0.000189412
385 *259:14 *1174:RESET_B 5.93381e-05
386 *259:14 *297:425 9.20311e-06
387 *262:10 *297:425 0
388 *269:6 *1188:RESET_B 0.00012308
389 *270:10 *297:97 0.000293785
390 *271:24 *1139:RESET_B 0.000138031
391 *279:10 *971:RESET_B 0
392 *279:10 *992:RESET_B 0
393 *279:10 *297:97 0
394 *279:10 *297:697 0
395 *280:10 *1147:RESET_B 9.34338e-05
396 *280:10 *297:649 0.000156449
397 *280:10 *297:661 0.00028083
398 *280:14 *1147:RESET_B 0
399 *280:14 *297:44 0
400 *281:10 *297:88 0
401 *281:10 *297:97 0
402 *281:10 *297:113 0
403 *281:10 *297:122 0
404 *281:10 *297:637 0
405 *283:10 *297:649 0.000303278
406 *283:10 *297:661 0.000565428
407 *290:14 *297:286 0.000245138
408 *290:14 *297:288 0.000104569
409 *290:14 *297:290 4.16764e-05
410 *290:14 *297:292 0.000103824
411 *294:10 *297:274 4.6318e-06
412 *295:14 *297:247 0
413 *295:14 *297:254 0
414 *295:14 *297:274 0
415 *296:12 *297:233 0.000201464
416 *296:12 *297:247 0.000408895
417 *296:12 *297:254 7.66085e-05
418 *296:12 *297:274 3.39335e-05
*RES
1 *1216:X *297:8 48.8854 
2 *297:8 *297:10 3.49036 
3 *297:10 *1167:RESET_B 16.9782 
4 *297:10 *297:20 1.90571 
5 *297:20 *1161:RESET_B 21.7632 
6 *297:20 *297:44 27.8636 
7 *297:44 *1160:RESET_B 1.97821 
8 *297:44 *297:56 22.1671 
9 *297:56 *1154:RESET_B 15 
10 *297:56 *1147:RESET_B 20.7793 
11 *1147:RESET_B *297:76 22.7161 
12 *297:76 *1182:RESET_B 25.8025 
13 *297:76 *297:88 1.20143 
14 *297:88 *1153:RESET_B 15 
15 *297:88 *297:97 28.1743 
16 *297:97 *297:99 1.57429 
17 *297:99 *297:101 15 
18 *297:101 *1146:RESET_B 17.5789 
19 *297:101 *297:113 6.13143 
20 *297:113 *1125:RESET_B 15 
21 *297:113 *297:122 4.64 
22 *297:122 *297:126 17.5271 
23 *297:126 *979:RESET_B 0.548929 
24 *297:126 *297:144 35.4036 
25 *297:144 *985:RESET_B 15 
26 *985:RESET_B *297:165 21.0768 
27 *297:165 *297:171 20.945 
28 *297:171 *297:173 5.42714 
29 *297:173 *297:175 1.90571 
30 *297:175 *297:181 4.785 
31 *297:181 *1013:RESET_B 16.9057 
32 *297:181 *978:RESET_B 28.4125 
33 *978:RESET_B *1188:RESET_B 40.1396 
34 *297:175 *1063:RESET_B 15 
35 *297:173 *1007:RESET_B 19.8368 
36 *297:171 *1070:RESET_B 21.1625 
37 *1070:RESET_B *297:233 26.2168 
38 *297:233 *1077:RESET_B 16.0254 
39 *297:233 *297:247 12.18 
40 *297:247 *1083:RESET_B 15 
41 *297:247 *297:254 2.96214 
42 *297:254 *999:RESET_B 29.7589 
43 *297:254 *297:274 29.1064 
44 *297:274 *297:276 1.57429 
45 *297:276 *1097:RESET_B 3.88393 
46 *297:276 *297:286 26.4136 
47 *297:286 *297:288 4.01857 
48 *297:288 *297:290 1.90571 
49 *297:290 *297:292 5.77929 
50 *297:292 *297:296 20.7793 
51 *297:296 *297:302 18.0243 
52 *297:302 *297:308 9.28 
53 *297:308 *297:310 4.01857 
54 *297:310 *297:312 2.08179 
55 *297:312 *1112:RESET_B 15.9425 
56 *297:312 *297:323 2.78607 
57 *297:323 *297:325 3.31429 
58 *297:325 *297:327 9.30071 
59 *297:327 *297:331 6.75286 
60 *297:331 *297:333 1.55357 
61 *297:333 *297:335 0.849286 
62 *297:335 *297:337 3.31429 
63 *297:337 *297:341 2.52714 
64 *297:341 *1140:RESET_B 24.8082 
65 *297:341 *297:357 17.5271 
66 *297:357 *1034:RESET_B 17.4518 
67 *1034:RESET_B *1035:RESET_B 41.4239 
68 *1035:RESET_B *1028:RESET_B 35.7793 
69 *1028:RESET_B *297:400 20.6861 
70 *297:400 *1175:RESET_B 27.5011 
71 *1175:RESET_B *297:412 15 
72 *297:412 *1174:RESET_B 26.7657 
73 *297:412 *297:425 6.19357 
74 *297:425 *1181:RESET_B 15 
75 *297:425 *1014:RESET_B 27.5218 
76 *297:400 *297:450 37.5193 
77 *297:450 *1027:RESET_B 15 
78 *297:450 *297:461 3.02429 
79 *297:461 *1021:RESET_B 15 
80 *297:461 *297:474 31.0743 
81 *297:474 *1056:RESET_B 2.45464 
82 *297:474 *1020:RESET_B 33.6664 
83 *297:357 *1041:RESET_B 0.548929 
84 *297:337 *1042:RESET_B 15 
85 *297:335 *1139:RESET_B 25.5954 
86 *297:333 *1133:RESET_B 15 
87 *297:331 *1055:RESET_B 18.9046 
88 *297:327 *1132:RESET_B 24.1246 
89 *297:325 *1119:RESET_B 15 
90 *297:323 *1118:RESET_B 25.7611 
91 *297:310 *1062:RESET_B 21.2661 
92 *297:308 *1111:RESET_B 24.1246 
93 *297:302 *1069:RESET_B 24.0625 
94 *297:296 *1105:RESET_B 0.548929 
95 *297:292 *1104:RESET_B 18.8839 
96 *297:290 *1076:RESET_B 17.9311 
97 *297:288 *1098:RESET_B 18.8839 
98 *297:286 *1091:RESET_B 15 
99 *297:274 *1090:RESET_B 0.548929 
100 *297:165 *1006:RESET_B 0.548929 
101 *297:122 *297:637 22.54 
102 *297:637 *986:RESET_B 1.02536 
103 *297:637 *297:645 5.86214 
104 *297:645 *297:649 19.0186 
105 *297:649 *972:RESET_B 16.0254 
106 *297:649 *297:661 22.54 
107 *297:661 *297:667 23.265 
108 *297:667 *297:673 21.4629 
109 *297:673 *993:RESET_B 4.36036 
110 *297:673 *297:681 15 
111 *297:681 *297:697 41.5557 
112 *297:697 *1084:RESET_B 10.0775 
113 *297:697 *1000:RESET_B 0.548929 
114 *297:681 *992:RESET_B 26.9832 
115 *297:667 *971:RESET_B 19.9196 
116 *297:661 *1048:RESET_B 1.02536 
117 *297:645 *1049:RESET_B 2.45464 
118 *297:99 *1189:RESET_B 1.04607 
119 *297:97 *1126:RESET_B 7.86107 
120 *297:8 *1168:RESET_B 21.7321 
*END

*D_NET *298 0.0819278
*CONN
*I *1092:C I *D sky130_fd_sc_hd__nand3_1
*I *1085:C I *D sky130_fd_sc_hd__nand3_1
*I *1071:C I *D sky130_fd_sc_hd__nand3_1
*I *1064:C I *D sky130_fd_sc_hd__nand3_1
*I *1057:C I *D sky130_fd_sc_hd__nand3_1
*I *1058:A2 I *D sky130_fd_sc_hd__a21o_1
*I *1065:A2 I *D sky130_fd_sc_hd__a21o_1
*I *1072:A2 I *D sky130_fd_sc_hd__a21o_1
*I *1100:A2 I *D sky130_fd_sc_hd__a21o_1
*I *1106:C I *D sky130_fd_sc_hd__nand3_1
*I *1113:C I *D sky130_fd_sc_hd__nand3_1
*I *1128:A2 I *D sky130_fd_sc_hd__a21o_1
*I *1022:C I *D sky130_fd_sc_hd__nand3_1
*I *1183:C I *D sky130_fd_sc_hd__nand3_1
*I *1184:A2 I *D sky130_fd_sc_hd__a21o_1
*I *980:C I *D sky130_fd_sc_hd__nand3_1
*I *981:A2 I *D sky130_fd_sc_hd__a21o_1
*I *1002:A2 I *D sky130_fd_sc_hd__a21o_1
*I *1001:C I *D sky130_fd_sc_hd__nand3_1
*I *974:A2 I *D sky130_fd_sc_hd__a21o_1
*I *973:C I *D sky130_fd_sc_hd__nand3_1
*I *1008:C I *D sky130_fd_sc_hd__nand3_1
*I *1009:A2 I *D sky130_fd_sc_hd__a21o_1
*I *1015:C I *D sky130_fd_sc_hd__nand3_1
*I *1016:A2 I *D sky130_fd_sc_hd__a21o_1
*I *1050:C I *D sky130_fd_sc_hd__nand3_1
*I *1051:A2 I *D sky130_fd_sc_hd__a21o_1
*I *1023:A2 I *D sky130_fd_sc_hd__a21o_1
*I *1163:A2 I *D sky130_fd_sc_hd__a21o_1
*I *1162:C I *D sky130_fd_sc_hd__nand3_1
*I *1169:C I *D sky130_fd_sc_hd__nand3_1
*I *1170:A2 I *D sky130_fd_sc_hd__a21o_1
*I *1156:A2 I *D sky130_fd_sc_hd__a21o_1
*I *1148:C I *D sky130_fd_sc_hd__nand3_1
*I *1149:A2 I *D sky130_fd_sc_hd__a21o_1
*I *1142:A2 I *D sky130_fd_sc_hd__a21o_1
*I *1141:C I *D sky130_fd_sc_hd__nand3_1
*I *1155:C I *D sky130_fd_sc_hd__nand3_1
*I *1177:A2 I *D sky130_fd_sc_hd__a21o_1
*I *1176:C I *D sky130_fd_sc_hd__nand3_1
*I *1029:C I *D sky130_fd_sc_hd__nand3_1
*I *1030:A2 I *D sky130_fd_sc_hd__a21o_1
*I *1036:C I *D sky130_fd_sc_hd__nand3_1
*I *1037:A2 I *D sky130_fd_sc_hd__a21o_1
*I *1135:A2 I *D sky130_fd_sc_hd__a21o_1
*I *1134:C I *D sky130_fd_sc_hd__nand3_1
*I *1127:C I *D sky130_fd_sc_hd__nand3_1
*I *1114:A2 I *D sky130_fd_sc_hd__a21o_1
*I *1107:A2 I *D sky130_fd_sc_hd__a21o_1
*I *1099:C I *D sky130_fd_sc_hd__nand3_1
*I *1044:A2 I *D sky130_fd_sc_hd__a21o_1
*I *1043:C I *D sky130_fd_sc_hd__nand3_1
*I *1120:C I *D sky130_fd_sc_hd__nand3_1
*I *1121:A2 I *D sky130_fd_sc_hd__a21o_1
*I *964:C I *D sky130_fd_sc_hd__nand3_1
*I *965:A2 I *D sky130_fd_sc_hd__a21o_1
*I *987:C I *D sky130_fd_sc_hd__nand3_1
*I *988:A2 I *D sky130_fd_sc_hd__a21o_1
*I *994:C I *D sky130_fd_sc_hd__nand3_1
*I *995:A2 I *D sky130_fd_sc_hd__a21o_1
*I *1078:C I *D sky130_fd_sc_hd__nand3_1
*I *1079:A2 I *D sky130_fd_sc_hd__a21o_1
*I *1086:A2 I *D sky130_fd_sc_hd__a21o_1
*I *1093:A2 I *D sky130_fd_sc_hd__a21o_1
*I *1217:X O *D sky130_fd_sc_hd__buf_12
*CAP
1 *1092:C 5.28544e-05
2 *1085:C 0
3 *1071:C 0.000267946
4 *1064:C 0
5 *1057:C 4.24211e-05
6 *1058:A2 0.000212197
7 *1065:A2 2.59043e-05
8 *1072:A2 0
9 *1100:A2 0
10 *1106:C 0
11 *1113:C 0
12 *1128:A2 0
13 *1022:C 0
14 *1183:C 0
15 *1184:A2 2.34823e-05
16 *980:C 0.000153076
17 *981:A2 0
18 *1002:A2 0
19 *1001:C 0
20 *974:A2 0.000155461
21 *973:C 0
22 *1008:C 2.34823e-05
23 *1009:A2 0
24 *1015:C 0.000138982
25 *1016:A2 0
26 *1050:C 6.76774e-05
27 *1051:A2 2.28088e-05
28 *1023:A2 0.000168725
29 *1163:A2 0
30 *1162:C 0
31 *1169:C 0
32 *1170:A2 9.13209e-05
33 *1156:A2 0
34 *1148:C 6.31283e-05
35 *1149:A2 0
36 *1142:A2 0
37 *1141:C 0
38 *1155:C 3.62665e-05
39 *1177:A2 0.000428478
40 *1176:C 0
41 *1029:C 0.000135109
42 *1030:A2 0
43 *1036:C 0
44 *1037:A2 0.000308547
45 *1135:A2 7.81914e-05
46 *1134:C 0.000129961
47 *1127:C 0.000275048
48 *1114:A2 0.000108235
49 *1107:A2 0.000179438
50 *1099:C 0
51 *1044:A2 0
52 *1043:C 0
53 *1120:C 0
54 *1121:A2 0.000243413
55 *964:C 0
56 *965:A2 4.90427e-05
57 *987:C 0
58 *988:A2 1.09231e-05
59 *994:C 0
60 *995:A2 3.08611e-05
61 *1078:C 0
62 *1079:A2 0
63 *1086:A2 5.94106e-05
64 *1093:A2 0
65 *1217:X 0.000150017
66 *298:830 0.000370827
67 *298:802 0.000706177
68 *298:789 0.00124038
69 *298:780 0.000507283
70 *298:752 0.00024879
71 *298:734 0.000346384
72 *298:719 0.000685941
73 *298:701 0.000290641
74 *298:692 0.000310696
75 *298:669 0.000653386
76 *298:667 0.0011815
77 *298:647 0.000155461
78 *298:645 0.00141546
79 *298:641 0.0012746
80 *298:632 0.000539319
81 *298:625 0.000219934
82 *298:615 0.000832127
83 *298:600 0.000669843
84 *298:587 0.000508618
85 *298:583 0.000749851
86 *298:572 0.000791423
87 *298:547 0.000683136
88 *298:524 0.000349936
89 *298:516 0.000748532
90 *298:496 0.000249755
91 *298:492 0.000876405
92 *298:460 0.000521938
93 *298:443 0.000721887
94 *298:439 0.000625419
95 *298:429 0.0010816
96 *298:405 0.000464745
97 *298:403 0.000846881
98 *298:399 0.000743915
99 *298:390 0.000597964
100 *298:384 0.00177395
101 *298:376 0.0016667
102 *298:365 0.000628654
103 *298:354 0.000724305
104 *298:345 0.000429192
105 *298:326 0.000576811
106 *298:324 0.00181236
107 *298:309 0.00168453
108 *298:294 0.00103819
109 *298:275 0.00108434
110 *298:269 0.000837596
111 *298:265 0.000661812
112 *298:250 0.000658329
113 *298:244 0.000500848
114 *298:229 0.000747624
115 *298:221 0.000298636
116 *298:214 0.000242488
117 *298:204 0.000884816
118 *298:196 0.00104929
119 *298:194 0.000912957
120 *298:186 0.000386288
121 *298:154 0.000688949
122 *298:148 0.000609372
123 *298:144 0.000530505
124 *298:135 0.000564064
125 *298:122 0.00115797
126 *298:113 0.0010059
127 *298:102 0.000546876
128 *298:87 0.000636019
129 *298:72 0.00128631
130 *298:63 0.00120907
131 *298:54 0.000543135
132 *298:37 0.000454493
133 *298:35 0.000354786
134 *298:27 0.000930525
135 *298:20 0.000305992
136 *298:14 0.000908307
137 *298:10 0.000300938
138 *1023:A2 *303:14 0
139 *1023:A2 *304:24 4.94192e-05
140 *1029:C *303:14 0
141 *1037:A2 *302:26 0.000393926
142 *298:87 *307:10 2.96051e-05
143 *298:354 *302:18 0.000354127
144 *298:354 *303:35 2.02517e-05
145 *298:365 *1030:A1 2.93747e-05
146 *298:365 *303:35 6.38109e-05
147 *298:376 *303:14 0
148 *298:547 *302:14 0
149 *298:587 *1016:A1 1.14452e-05
150 *298:587 *303:8 0
151 *298:587 *304:10 0
152 *298:600 *1016:A1 0.000131569
153 *298:600 *303:8 0.000104387
154 *298:615 *303:8 8.51167e-05
155 *298:615 *305:10 0.000108569
156 *298:625 *1008:B 3.56433e-05
157 *298:625 *304:10 5.61414e-05
158 *298:632 *1008:B 7.1349e-05
159 *298:692 *1001:B 1.90378e-05
160 *298:692 *1002:A1 5.51064e-05
161 *298:692 *306:14 4.23261e-05
162 *298:692 *307:10 0
163 *298:830 *302:10 0.000137153
164 *964:A *965:A2 0.000104183
165 *964:A *298:122 1.76557e-05
166 *965:A1 *965:A2 5.67058e-05
167 *965:A1 *298:135 0.000149562
168 *965:B1 *965:A2 1.14154e-05
169 *971:CLK *298:113 1.37232e-05
170 *971:CLK *298:122 0.000273772
171 *971:D *298:122 2.98648e-05
172 *971:RESET_B *298:122 4.83893e-05
173 *973:B *974:A2 6.40944e-05
174 *980:B *980:C 4.6337e-05
175 *981:A1 *980:C 5.50049e-05
176 *981:B1 *980:C 0.000139352
177 *984:A2 *298:667 0
178 *987:A *988:A2 1.5418e-05
179 *987:A *298:102 0.000109097
180 *987:A *298:113 4.20085e-05
181 *987:B *298:113 2.35625e-05
182 *987:B *298:122 1.4345e-05
183 *991:A2 *298:102 0.000141954
184 *995:B1 *995:A2 8.57697e-07
185 *999:RESET_B *298:54 0.000123944
186 *999:RESET_B *298:63 9.32275e-05
187 *999:RESET_B *298:72 0.000587243
188 *1008:A *298:625 0
189 *1008:A *298:632 0.000230604
190 *1010:A *298:641 5.67058e-05
191 *1010:A *298:645 0
192 *1012:B1_N *298:645 0
193 *1017:B *1015:C 5.50106e-05
194 *1024:A *1023:A2 5.50049e-05
195 *1026:A2 *1023:A2 0.000183733
196 *1028:CLK *298:384 1.94693e-05
197 *1028:RESET_B *1029:C 0
198 *1028:RESET_B *298:376 0
199 *1032:B *298:365 0.00014196
200 *1036:A *1037:A2 7.37814e-06
201 *1036:A *298:326 7.37814e-06
202 *1037:B1 *1037:A2 5.3304e-05
203 *1038:A *1037:A2 0.000133666
204 *1038:B *1037:A2 0
205 *1044:A1 *298:144 5.67058e-05
206 *1050:A *1051:A2 9.84851e-05
207 *1050:A *298:572 0.00010018
208 *1051:A1 *1050:C 0
209 *1051:A1 *1051:A2 5.67058e-05
210 *1051:A1 *298:572 1.22822e-05
211 *1057:A *1058:A2 0
212 *1066:B *1065:A2 0
213 *1066:B *298:830 5.67058e-05
214 *1069:CLK *298:204 5.50106e-05
215 *1069:RESET_B *298:204 6.22284e-05
216 *1071:A *1071:C 9.64943e-05
217 *1072:A1 *298:196 0
218 *1072:A1 *298:789 5.79559e-05
219 *1072:B1 *298:196 0
220 *1079:B1 *298:63 0.000139352
221 *1083:CLK *1086:A2 5.3304e-05
222 *1083:CLK *298:35 0.000138607
223 *1085:B *298:194 1.90822e-05
224 *1089:A2 *298:35 9.94414e-05
225 *1092:A *298:20 0.000133666
226 *1093:B1 *298:20 4.95442e-05
227 *1100:B1 *298:204 1.32314e-05
228 *1100:B1 *298:214 9.5877e-05
229 *1100:B1 *298:221 0
230 *1101:A *298:229 4.21594e-06
231 *1101:B *298:204 1.14876e-05
232 *1101:B *298:214 8.06804e-06
233 *1101:B *298:221 7.33848e-06
234 *1106:A *298:244 0.000136132
235 *1107:A1 *1107:A2 4.95081e-05
236 *1107:B1 *1107:A2 0.000182826
237 *1107:B1 *298:244 7.03766e-05
238 *1114:B1 *1114:A2 9.84794e-05
239 *1120:A *1121:A2 0.000115598
240 *1121:A1 *1121:A2 0.000204566
241 *1127:A *1127:C 5.50049e-05
242 *1128:A1 *1127:C 0.000131608
243 *1128:B1 *1127:C 0
244 *1130:A *298:752 3.70094e-05
245 *1134:A *1134:C 5.50049e-05
246 *1134:A *1135:A2 0
247 *1134:A *298:294 2.71291e-05
248 *1134:A *298:309 4.5051e-05
249 *1134:B *1134:C 4.2573e-05
250 *1135:B1 *1135:A2 0
251 *1139:RESET_B *298:324 0.00021752
252 *1141:B *298:460 4.9662e-05
253 *1144:A *298:460 0
254 *1144:B *298:460 7.27085e-05
255 *1149:A1 *298:439 2.30292e-05
256 *1149:A1 *298:443 0.000111852
257 *1149:B1 *298:439 0.000175649
258 *1155:A *298:403 7.75329e-06
259 *1155:A *298:429 1.19796e-05
260 *1162:A *298:524 0
261 *1162:B *298:524 9.84794e-05
262 *1163:B1 *298:524 0
263 *1167:CLK *1170:A2 1.14154e-05
264 *1169:A *1170:A2 5.17085e-05
265 *1170:A1 *1170:A2 1.22822e-05
266 *1173:B1_N *1170:A2 0
267 *1178:A *298:390 1.44546e-05
268 *1180:B1_N *298:384 0.000184527
269 *1180:B1_N *298:390 2.5415e-05
270 *1182:RESET_B *298:439 8.19644e-06
271 *1184:A1 *298:734 0.000408402
272 *1184:B1 *298:734 7.36726e-05
273 *1188:CLK *298:645 0
274 *1188:RESET_B *298:645 0
275 *26:9 *298:20 1.14452e-05
276 *39:24 *298:830 0.000219383
277 *39:51 *298:734 0
278 *41:10 *298:547 4.54033e-05
279 *41:38 *298:547 0.000105394
280 *41:56 *298:547 6.03737e-05
281 *41:56 *298:572 1.08118e-05
282 *41:78 *298:326 0
283 *42:10 *298:196 0.00021382
284 *42:10 *298:204 0.000171906
285 *42:34 *298:196 0.000275482
286 *42:88 *298:194 0.00021382
287 *42:88 *298:196 0.000169674
288 *42:103 *298:194 0.000408147
289 *45:10 *298:429 2.74987e-05
290 *46:12 *298:667 0
291 *46:18 *298:667 0
292 *46:22 *298:645 0
293 *46:22 *298:667 0
294 *46:79 *298:667 0
295 *51:6 *298:122 5.83407e-05
296 *58:16 *298:645 0.000125802
297 *58:16 *298:667 2.08324e-05
298 *59:8 *298:645 8.62876e-05
299 *63:10 *980:C 2.30292e-05
300 *64:10 *298:667 0
301 *67:8 *298:667 0
302 *68:6 *980:C 0.000221406
303 *68:6 *298:701 0.000105934
304 *70:8 *298:102 0.0001975
305 *70:8 *298:113 4.34745e-05
306 *71:6 *298:102 0.00014196
307 *77:10 *298:72 3.12704e-05
308 *77:10 *298:87 1.32939e-05
309 *80:6 *298:72 5.2894e-05
310 *80:25 *298:72 1.94693e-05
311 *82:8 *298:667 0
312 *87:29 *298:692 0.00017623
313 *91:8 *298:632 2.30292e-05
314 *91:8 *298:641 3.53115e-05
315 *92:16 *298:645 0
316 *98:6 *1015:C 5.50106e-05
317 *101:12 *298:600 0.000247687
318 *101:12 *298:615 3.70187e-05
319 *110:8 *1029:C 3.0647e-05
320 *110:8 *298:376 5.56306e-05
321 *110:12 *298:365 5.12254e-05
322 *110:18 *1029:C 8.16253e-05
323 *114:10 *1029:C 0
324 *119:10 *1037:A2 3.47776e-05
325 *119:10 *298:354 5.50049e-05
326 *120:12 *1037:A2 6.99492e-05
327 *121:8 *1037:A2 4.99753e-06
328 *121:8 *298:326 1.00765e-05
329 *121:8 *298:345 1.02561e-05
330 *124:10 *298:326 0
331 *124:10 *298:547 0
332 *126:16 *298:148 5.33597e-05
333 *126:16 *298:154 0.000225275
334 *129:27 *298:148 0.000277695
335 *129:27 *298:154 1.14452e-05
336 *131:10 *298:154 0
337 *133:8 *1051:A2 2.18506e-05
338 *140:8 *1058:A2 0
339 *145:19 *298:802 0
340 *148:12 *298:802 0.00018039
341 *148:12 *298:830 3.12591e-05
342 *150:12 *298:802 2.82307e-05
343 *154:10 *1071:C 1.5769e-05
344 *155:10 *298:789 5.67058e-05
345 *166:24 *298:35 0.000185306
346 *166:24 *298:194 0.000223043
347 *168:14 *298:186 6.17437e-06
348 *168:14 *298:194 8.48502e-06
349 *169:6 *298:35 9.84794e-05
350 *169:25 *1086:A2 5.56279e-05
351 *171:8 *1086:A2 2.50756e-05
352 *171:8 *298:54 4.69088e-05
353 *171:22 *298:35 1.56542e-05
354 *171:22 *298:194 6.17437e-06
355 *174:8 *298:194 2.86209e-05
356 *177:8 *298:10 0
357 *177:8 *298:20 0.000139647
358 *187:10 *298:229 0
359 *187:10 *298:244 0.000105072
360 *188:8 *298:229 0
361 *189:25 *298:244 0.000163361
362 *194:8 *298:265 0
363 *194:8 *298:269 0
364 *196:10 *298:269 8.62783e-05
365 *197:6 *1114:A2 8.06804e-06
366 *197:14 *298:265 3.95159e-06
367 *197:14 *298:269 3.24733e-05
368 *197:27 *1114:A2 2.45549e-06
369 *197:27 *298:265 2.94414e-05
370 *198:8 *298:269 0
371 *201:10 *298:269 0
372 *201:10 *298:752 0.000101708
373 *210:12 *298:294 8.97195e-05
374 *213:10 *1127:C 3.47781e-05
375 *213:10 *298:294 7.91596e-05
376 *214:8 *298:294 1.80023e-05
377 *217:8 *298:294 1.14452e-05
378 *223:10 *298:460 3.58358e-05
379 *223:18 *298:460 0.000135557
380 *224:23 *298:460 2.01531e-05
381 *229:8 *298:460 5.50106e-05
382 *230:8 *1148:C 8.62876e-05
383 *230:8 *298:429 0.000148519
384 *231:10 *298:429 0
385 *231:10 *298:439 5.12254e-05
386 *234:8 *298:429 0
387 *242:26 *298:524 0.000220541
388 *244:12 *298:524 9.24795e-06
389 *245:16 *298:524 8.9712e-05
390 *248:8 *298:524 0
391 *249:16 *298:524 0.000272377
392 *251:6 *1170:A2 5.67058e-05
393 *251:21 *298:496 0
394 *254:8 *298:496 0
395 *259:14 *298:384 0.000310641
396 *262:10 *298:384 0.000143655
397 *265:10 *298:734 0
398 *266:10 *298:734 0.000167994
399 *271:12 *1134:C 5.50049e-05
400 *271:24 *298:294 1.4471e-05
401 *272:12 *298:87 9.67842e-05
402 *272:12 *298:102 0.000228909
403 *272:22 *995:A2 1.56107e-05
404 *272:22 *298:87 2.80924e-06
405 *273:12 *298:102 0.000240987
406 *274:12 *1092:C 0.000157299
407 *274:12 *298:10 0.000225275
408 *274:12 *298:20 0
409 *274:14 *1127:C 2.74884e-05
410 *274:14 *298:214 0
411 *274:14 *298:250 0
412 *274:14 *298:275 0
413 *276:16 *974:A2 2.66911e-05
414 *276:16 *298:667 0
415 *278:14 *1177:A2 9.58714e-05
416 *279:10 *1148:C 0
417 *279:10 *298:403 0
418 *279:10 *298:429 0
419 *279:10 *298:492 0
420 *279:10 *298:496 0
421 *279:10 *298:524 0
422 *279:16 *1170:A2 5.70419e-05
423 *280:10 *298:443 0.000306202
424 *280:10 *298:460 5.90251e-05
425 *281:10 *298:429 0
426 *281:24 *298:403 0.00020394
427 *282:14 *298:802 0
428 *283:10 *298:443 0.000431182
429 *283:10 *298:460 0.000120396
430 *284:10 *298:148 7.70038e-05
431 *284:10 *298:154 0.000578766
432 *284:20 *298:460 4.43717e-05
433 *285:14 *1121:A2 4.04303e-05
434 *285:14 *298:148 0.000185573
435 *285:14 *298:154 0.000452873
436 *286:12 *1114:A2 5.67058e-05
437 *286:25 *1114:A2 0.000215671
438 *286:25 *298:250 3.47781e-05
439 *286:25 *298:265 0.000190457
440 *288:10 *298:135 2.44913e-05
441 *288:10 *298:144 0.000358093
442 *289:16 *298:20 2.09183e-05
443 *289:16 *298:214 0.000367707
444 *289:16 *298:229 0.000215056
445 *289:37 *298:244 4.99753e-06
446 *289:37 *298:250 3.03165e-05
447 *290:32 *298:214 0.000370423
448 *290:32 *298:221 4.74892e-06
449 *291:16 *298:20 0.000430941
450 *292:12 *1086:A2 5.86204e-05
451 *292:12 *298:54 0.000192261
452 *293:18 *1050:C 5.67058e-05
453 *293:18 *298:572 8.51461e-05
454 *294:14 *298:54 6.9805e-05
455 *294:14 *298:63 5.67058e-05
456 *294:27 *298:63 0.000256544
457 *295:14 *298:194 0
458 *295:14 *298:196 0
459 *296:25 *298:830 0.000619079
460 *297:8 *298:524 0
461 *297:10 *298:524 0
462 *297:97 *1148:C 1.47563e-05
463 *297:144 *298:667 0
464 *297:274 *298:54 0.000265088
465 *297:286 *298:35 0
466 *297:296 *298:229 0
467 *297:308 *298:229 0
468 *297:400 *298:384 0.0001042
*RES
1 *1217:X *298:10 41.5836 
2 *298:10 *298:14 16.5743 
3 *298:14 *298:20 38.2443 
4 *298:20 *1093:A2 23 
5 *298:14 *298:27 7.76786 
6 *298:27 *298:35 37.2707 
7 *298:35 *298:37 15 
8 *298:37 *1086:A2 39.4707 
9 *298:37 *298:54 25.3779 
10 *298:54 *1079:A2 23 
11 *298:54 *298:63 4.93 
12 *298:63 *1078:C 23 
13 *298:63 *298:72 15.4114 
14 *298:72 *995:A2 23.7354 
15 *298:72 *298:87 32.9 
16 *298:87 *994:C 23 
17 *298:87 *298:102 12.2629 
18 *298:102 *988:A2 23.4971 
19 *298:102 *298:113 2.9 
20 *298:113 *987:C 23 
21 *298:113 *298:122 13.0293 
22 *298:122 *965:A2 24.9471 
23 *298:122 *298:135 3.50071 
24 *298:135 *964:C 23 
25 *298:135 *298:144 7.78857 
26 *298:144 *298:148 20.7793 
27 *298:148 *298:154 31.0329 
28 *298:154 *1121:A2 28.4479 
29 *298:154 *1120:C 23 
30 *298:148 *1043:C 38 
31 *298:144 *1044:A2 23 
32 *298:27 *298:186 1.09786 
33 *298:186 *298:194 24.3629 
34 *298:194 *298:196 8.59643 
35 *298:196 *298:204 25.9993 
36 *298:204 *298:214 36.7943 
37 *298:214 *1099:C 23 
38 *298:204 *298:221 0.849286 
39 *298:221 *298:229 35.5721 
40 *298:229 *1107:A2 26.9771 
41 *298:229 *298:244 22.2293 
42 *298:244 *298:250 17.8793 
43 *298:250 *1114:A2 26.5007 
44 *298:250 *298:265 20.5929 
45 *298:265 *298:269 21.1314 
46 *298:269 *298:275 19.0289 
47 *298:275 *1127:C 43.4996 
48 *298:275 *298:294 25.5332 
49 *298:294 *1134:C 25.5479 
50 *298:294 *298:309 20.1579 
51 *298:309 *1135:A2 38.8493 
52 *298:309 *298:324 46.3436 
53 *298:324 *298:326 4.19464 
54 *298:326 *1037:A2 45.7989 
55 *298:326 *298:345 15.9425 
56 *298:345 *1036:C 23 
57 *298:345 *298:354 7.78857 
58 *298:354 *1030:A2 23 
59 *298:354 *298:365 21.7114 
60 *298:365 *1029:C 40.9621 
61 *298:365 *298:376 3.31429 
62 *298:376 *298:384 36.75 
63 *298:384 *298:390 31.9057 
64 *298:390 *1176:C 23 
65 *298:390 *298:399 8.74143 
66 *298:399 *298:403 20.7793 
67 *298:403 *298:405 15 
68 *298:405 *1177:A2 30.2914 
69 *298:405 *1155:C 23.6214 
70 *298:403 *298:429 11.6621 
71 *298:429 *298:439 22.7057 
72 *298:439 *298:443 22.8921 
73 *298:443 *1141:C 38 
74 *298:443 *298:460 39.1971 
75 *298:460 *1142:A2 38 
76 *298:439 *1149:A2 23 
77 *298:429 *1148:C 39.5536 
78 *298:399 *1156:A2 23 
79 *298:384 *298:492 20.7171 
80 *298:492 *298:496 17.61 
81 *298:496 *1170:A2 26.045 
82 *298:496 *1169:C 23 
83 *298:492 *298:516 21.815 
84 *298:516 *298:524 39.135 
85 *298:524 *1162:C 23 
86 *298:516 *1163:A2 23 
87 *298:376 *1023:A2 41.9564 
88 *298:324 *298:547 7.54 
89 *298:547 *1051:A2 39.0979 
90 *298:547 *298:572 21.235 
91 *298:572 *1050:C 24.595 
92 *298:572 *298:583 7.29143 
93 *298:583 *298:587 20.7793 
94 *298:587 *1016:A2 38 
95 *298:587 *298:600 6.19357 
96 *298:600 *1015:C 40.0507 
97 *298:600 *298:615 22.2707 
98 *298:615 *298:625 34.205 
99 *298:625 *1009:A2 23 
100 *298:615 *298:632 6.33857 
101 *298:632 *1008:C 23.4971 
102 *298:632 *298:641 4.90929 
103 *298:641 *298:645 28.8786 
104 *298:645 *298:647 15 
105 *298:647 *973:C 23 
106 *298:647 *974:A2 26.3971 
107 *298:645 *298:667 26.4136 
108 *298:667 *298:669 5.38571 
109 *298:669 *1001:C 23 
110 *298:669 *298:692 37.1775 
111 *298:692 *1002:A2 23 
112 *298:667 *298:701 3.50071 
113 *298:701 *981:A2 23 
114 *298:701 *980:C 28.4271 
115 *298:641 *298:719 5.86214 
116 *298:719 *1184:A2 23.4971 
117 *298:719 *298:734 38.6586 
118 *298:734 *1183:C 23 
119 *298:583 *1022:C 23 
120 *298:269 *298:752 33.9564 
121 *298:752 *1128:A2 23 
122 *298:265 *1113:C 38 
123 *298:244 *1106:C 38 
124 *298:221 *1100:A2 23 
125 *298:196 *298:780 17.0507 
126 *298:780 *1072:A2 23 
127 *298:780 *298:789 7.31214 
128 *298:789 *1065:A2 23.5438 
129 *298:789 *298:802 24.3007 
130 *298:802 *1058:A2 41.7079 
131 *298:802 *1057:C 38.6214 
132 *298:789 *298:830 40.4814 
133 *298:830 *1064:C 23 
134 *298:194 *1071:C 42.4536 
135 *298:186 *1085:C 23 
136 *298:10 *1092:C 40.2579 
*END

*D_NET *299 0.00234188
*CONN
*I *1224:A I *D sky130_fd_sc_hd__buf_1
*I *1140:Q O *D sky130_fd_sc_hd__dfrtp_1
*CAP
1 *1224:A 0.000433988
2 *1140:Q 0.000398527
3 *299:10 0.000832515
4 *1137:A *299:10 0.000141869
5 *1138:A2 *1224:A 0.000226295
6 *40:39 *1224:A 0.000141246
7 *219:8 *299:10 0.000167443
*RES
1 *1140:Q *299:10 46.5136 
2 *299:10 *1224:A 45.1879 
*END

*D_NET *300 0.000476004
*CONN
*I *967:A I *D sky130_fd_sc_hd__xnor2_1
*I *968:LO O *D sky130_fd_sc_hd__conb_1
*CAP
1 *967:A 0
2 *968:LO 0.000147908
3 *300:10 0.000147908
4 *47:31 *300:10 0
5 *279:10 *300:10 0.000169665
6 *297:673 *300:10 1.05235e-05
7 *297:697 *300:10 0
*RES
1 *968:LO *300:10 40.8793 
2 *300:10 *967:A 38 
*END

*D_NET *301 0.000840278
*CONN
*I *969:A1 I *D sky130_fd_sc_hd__a21bo_1
*I *970:LO O *D sky130_fd_sc_hd__conb_1
*CAP
1 *969:A1 0
2 *970:LO 0.000298602
3 *301:10 0.000298602
4 *971:CLK *301:10 0
5 *16:11 *301:10 2.76611e-06
6 *17:11 *301:10 2.76611e-06
7 *47:40 *301:10 0
8 *52:8 *301:10 4.58924e-05
9 *279:10 *301:10 0.000191649
*RES
1 *970:LO *301:10 44.4007 
2 *301:10 *969:A1 38 
*END

*D_NET *302 0.0105269
*CONN
*I *1036:B I *D sky130_fd_sc_hd__nand3_1
*I *1037:A1 I *D sky130_fd_sc_hd__a21o_1
*I *1218:X O *D sky130_fd_sc_hd__buf_1
*CAP
1 *1036:B 0
2 *1037:A1 0
3 *1218:X 0
4 *302:26 0.000274459
5 *302:18 0.000480474
6 *302:14 0.00152511
7 *302:10 0.00297863
8 *302:6 0.00165954
9 *302:10 *303:8 0
10 *302:14 *303:8 0
11 *302:14 *303:14 0
12 *950:A *302:14 0
13 *999:CLK *302:10 0.000314872
14 *1013:CLK *302:10 0
15 *1020:RESET_B *302:14 2.472e-05
16 *1036:A *302:26 0.000114083
17 *1037:A2 *302:26 0.000393926
18 *1037:B1 *302:26 0.000320008
19 *1038:A *302:26 6.7177e-06
20 *1039:B *302:18 0.000180218
21 *39:87 *302:14 0
22 *41:78 *302:14 0
23 *43:12 *302:10 8.41012e-05
24 *43:23 *302:10 0.000108569
25 *43:39 *302:10 0.000110024
26 *43:50 *302:10 0.000222091
27 *43:79 *302:10 0
28 *116:10 *302:26 0
29 *117:26 *302:18 0
30 *119:10 *302:18 2.18506e-05
31 *138:8 *302:14 0.000396507
32 *146:10 *302:10 0
33 *146:10 *302:14 0
34 *160:10 *302:10 5.56203e-05
35 *293:12 *302:10 0
36 *293:18 *302:10 0
37 *293:18 *302:14 0.000764146
38 *298:354 *302:18 0.000354127
39 *298:547 *302:14 0
40 *298:830 *302:10 0.000137153
*RES
1 *1218:X *302:6 38 
2 *302:6 *302:10 36.8093 
3 *302:10 *302:14 46.4857 
4 *302:14 *302:18 5.40643 
5 *302:18 *302:26 37.2293 
6 *302:26 *1037:A1 23 
7 *302:18 *1036:B 23 
*END

*D_NET *303 0.00920236
*CONN
*I *1029:B I *D sky130_fd_sc_hd__nand3_1
*I *1030:A1 I *D sky130_fd_sc_hd__a21o_1
*I *1219:X O *D sky130_fd_sc_hd__buf_1
*CAP
1 *1029:B 0
2 *1030:A1 2.40964e-05
3 *1219:X 0
4 *303:35 0.000347103
5 *303:14 0.000741311
6 *303:8 0.00335734
7 *303:6 0.00298722
8 *303:8 *304:24 0
9 *303:8 *305:10 0
10 *950:A *303:8 0
11 *950:A *303:14 2.43922e-05
12 *999:CLK *303:8 0
13 *1013:RESET_B *303:8 0.000141879
14 *1020:RESET_B *303:8 0
15 *1023:A2 *303:14 0
16 *1026:A1 *303:8 0
17 *1026:A1 *303:14 0
18 *1029:A *303:35 2.77855e-05
19 *1029:C *303:14 0
20 *1032:B *303:35 7.59794e-05
21 *1035:RESET_B *303:35 1.40958e-05
22 *39:87 *303:8 0
23 *43:39 *303:8 0
24 *43:50 *303:8 0
25 *81:10 *303:8 4.58924e-05
26 *103:10 *303:8 0
27 *109:10 *303:8 0
28 *110:18 *303:35 0.000111852
29 *114:10 *303:14 0
30 *114:10 *303:35 3.31683e-05
31 *115:12 *303:14 1.01436e-05
32 *138:8 *303:8 0
33 *146:10 *303:8 5.30621e-05
34 *153:10 *303:8 0.000351626
35 *297:171 *303:8 0.000145844
36 *297:173 *303:8 4.07715e-05
37 *297:175 *303:8 6.6869e-05
38 *297:181 *303:8 0.00029899
39 *298:354 *303:35 2.02517e-05
40 *298:365 *1030:A1 2.93747e-05
41 *298:365 *303:35 6.38109e-05
42 *298:376 *303:14 0
43 *298:587 *303:8 0
44 *298:600 *303:8 0.000104387
45 *298:615 *303:8 8.51167e-05
46 *302:10 *303:8 0
47 *302:14 *303:8 0
48 *302:14 *303:14 0
*RES
1 *1219:X *303:6 38 
2 *303:6 *303:8 60.7239 
3 *303:8 *303:14 22.0946 
4 *303:14 *1030:A1 23.6214 
5 *303:14 *303:35 36.6493 
6 *303:35 *1029:B 23 
*END

*D_NET *304 0.00878252
*CONN
*I *1022:B I *D sky130_fd_sc_hd__nand3_1
*I *1023:A1 I *D sky130_fd_sc_hd__a21o_1
*I *1220:X O *D sky130_fd_sc_hd__buf_1
*CAP
1 *1022:B 8.3887e-05
2 *1023:A1 3.9216e-05
3 *1220:X 7.82392e-05
4 *304:24 0.000516185
5 *304:10 0.00305203
6 *304:8 0.00256942
7 *304:8 *305:8 2.72257e-05
8 *304:10 *1008:B 0
9 *304:10 *305:10 0.00106974
10 *304:10 *306:14 0
11 *1017:B *304:10 0.00010762
12 *1022:A *1022:B 4.37033e-05
13 *1023:A2 *304:24 4.94192e-05
14 *1023:B1 *304:24 1.83961e-05
15 *1024:A *304:24 2.64616e-05
16 *1026:A1 *304:24 0.000141879
17 *1026:A2 *1023:A1 5.50106e-05
18 *75:23 *304:10 0.000169683
19 *77:10 *304:10 0
20 *79:8 *304:10 0
21 *83:10 *304:10 4.59027e-05
22 *87:8 *304:10 0
23 *96:10 *304:10 0
24 *98:14 *304:10 8.62783e-05
25 *99:10 *304:10 2.84912e-05
26 *100:10 *304:10 0
27 *101:25 *304:10 0.000166504
28 *103:10 *1022:B 1.24376e-05
29 *103:10 *304:24 0.000167443
30 *105:10 *304:10 0
31 *105:10 *304:24 0.000171202
32 *297:474 *304:10 0
33 *298:587 *304:10 0
34 *298:625 *304:10 5.61414e-05
35 *303:8 *304:24 0
*RES
1 *1220:X *304:8 39.0979 
2 *304:8 *304:10 55.7836 
3 *304:10 *304:24 39.4457 
4 *304:24 *1023:A1 38.6214 
5 *304:10 *1022:B 39.595 
*END

*D_NET *305 0.00662367
*CONN
*I *1015:B I *D sky130_fd_sc_hd__nand3_1
*I *1016:A1 I *D sky130_fd_sc_hd__a21o_1
*I *1221:X O *D sky130_fd_sc_hd__buf_1
*CAP
1 *1015:B 0
2 *1016:A1 0.000132329
3 *1221:X 0.000150761
4 *305:10 0.00206741
5 *305:8 0.00208584
6 *1017:B *1016:A1 0.0002129
7 *1017:B *305:10 1.14452e-05
8 *1220:A *305:10 6.70363e-05
9 *7:11 *305:10 0
10 *75:23 *305:10 8.76088e-05
11 *99:10 *1016:A1 0.000140949
12 *101:12 *1016:A1 0.000274562
13 *101:25 *1016:A1 4.42688e-05
14 *298:587 *1016:A1 1.14452e-05
15 *298:600 *1016:A1 0.000131569
16 *298:615 *305:10 0.000108569
17 *303:8 *305:10 0
18 *304:8 *305:8 2.72257e-05
19 *304:10 *305:10 0.00106974
*RES
1 *1221:X *305:8 40.5271 
2 *305:8 *305:10 45.9236 
3 *305:10 *1016:A1 43.7793 
4 *305:10 *1015:B 38 
*END

*D_NET *306 0.00600353
*CONN
*I *1009:A1 I *D sky130_fd_sc_hd__a21o_1
*I *1008:B I *D sky130_fd_sc_hd__nand3_1
*I *1222:X O *D sky130_fd_sc_hd__buf_1
*CAP
1 *1009:A1 0
2 *1008:B 0.000295764
3 *1222:X 0.000130712
4 *306:14 0.00228324
5 *306:8 0.00211818
6 *306:14 *1002:A1 0
7 *306:14 *307:10 0
8 *1003:B *306:14 0.00012838
9 *1008:A *1008:B 0.000314052
10 *1008:A *306:14 6.07611e-06
11 *39:10 *306:14 0
12 *39:40 *306:14 0
13 *77:10 *306:14 7.75329e-06
14 *78:8 *306:14 0.000168754
15 *79:8 *306:14 5.26308e-05
16 *80:25 *306:14 5.10276e-05
17 *83:10 *306:14 0
18 *85:10 *306:14 6.07929e-05
19 *87:8 *306:14 0.000141879
20 *87:29 *306:14 0
21 *89:10 *306:14 0
22 *90:10 *306:14 0
23 *94:10 *306:14 7.90464e-05
24 *95:8 *306:14 0
25 *272:22 *306:14 1.59208e-05
26 *298:625 *1008:B 3.56433e-05
27 *298:632 *1008:B 7.1349e-05
28 *298:692 *306:14 4.23261e-05
29 *304:10 *1008:B 0
30 *304:10 *306:14 0
*RES
1 *1222:X *306:8 39.5743 
2 *306:8 *306:14 39.6471 
3 *306:14 *1008:B 44.2143 
4 *306:14 *1009:A1 38 
*END

*D_NET *307 0.00263641
*CONN
*I *1001:B I *D sky130_fd_sc_hd__nand3_1
*I *1002:A1 I *D sky130_fd_sc_hd__a21o_1
*I *1223:X O *D sky130_fd_sc_hd__clkbuf_1
*CAP
1 *1001:B 1.56739e-05
2 *1002:A1 0.000160163
3 *1223:X 5.45426e-05
4 *307:10 0.00111845
5 *307:8 0.000997158
6 *46:98 *307:10 0
7 *80:25 *307:10 7.71222e-05
8 *84:8 *1002:A1 1.01436e-05
9 *85:10 *1002:A1 2.76611e-06
10 *87:29 *1001:B 1.02791e-05
11 *87:29 *307:10 6.16439e-05
12 *272:22 *307:10 2.472e-05
13 *298:87 *307:10 2.96051e-05
14 *298:692 *1001:B 1.90378e-05
15 *298:692 *1002:A1 5.51064e-05
16 *298:692 *307:10 0
17 *306:14 *1002:A1 0
18 *306:14 *307:10 0
*RES
1 *1223:X *307:8 38.6214 
2 *307:8 *307:10 16.5196 
3 *307:10 *1002:A1 40.3925 
4 *307:10 *1001:B 38.3832 
*END
